64
Converted from Gaussian clipboard
H      3.018140    -1.860379    -1.250204
C      3.347554    -1.046040    -0.589550
C      4.497290    -0.364395     1.448863
C      3.365542     1.342009    -0.068990
C      3.159743     0.372945     1.144072
C      3.492573     0.351352    -1.269306
C      4.629646    -1.344164     0.246852
H      4.436309    -0.895990     2.404273
H      2.664340     0.837340     2.002399
H      4.452791     0.452384    -1.784124
H      5.531423    -1.159113    -0.345621
H      5.334444     0.339255     1.511789
H      4.298714     1.906696     0.062614
H      2.701597     0.512386    -2.008048
H      4.653585    -2.389668     0.573133
N      2.353594    -0.739100     0.510844
C      2.230197     2.341033    -0.194579
O      2.420957     3.478546     0.234750
O      1.114011     1.921697    -0.737012
H      0.991745     0.961582    -1.122969
C      1.128256    -1.348828     0.863027
C      0.585010    -1.105591     2.239777
H      1.416685    -1.138466     2.950556
H     -0.063596    -1.942277     2.520580
C      0.503842    -2.198924    -0.005940
H      1.109308    -2.669143    -0.782288
H     -0.342217    -2.774561     0.357781
O      0.635159    -0.306265    -1.785707
C     -0.227869    -1.181253    -1.372560
C     -1.641281    -0.828515    -1.015437
H     -0.136796    -2.121533    -1.963468
C     -2.195514     0.474861    -1.096691
C     -2.467161    -1.870636    -0.589691
C     -3.503155     0.662295    -0.658778
C     -3.749326    -1.649508    -0.157025
H     -2.090929    -2.878428    -0.606925
C     -4.266145    -0.373040    -0.176126
H     -3.941833     1.644540    -0.689640
H     -4.370263    -2.456066     0.195624
N     -5.618582    -0.117138     0.305977
O     -6.381964    -1.077907     0.458838
O     -5.941607     1.053390     0.545851
C     -0.172673     0.179536     2.427783
C     -1.487655     0.284388     2.008746
C      0.396340     1.270652     3.069180
C     -2.215334     1.435235     2.223198
H     -1.945904    -0.550399     1.510932
C     -0.314976     2.439113     3.249349
H      1.389462     1.190455     3.474283
C     -1.625544     2.522087     2.830465
H     -3.247915     1.479108     1.918383
H      0.158126     3.289601     3.712802
H     -2.190665     3.426044     2.987515
C     -1.521144     1.670437    -1.659950
C     -1.556772     2.887913    -0.978272
C     -0.932557     1.649937    -2.922136
C     -1.001863     4.024572    -1.520697
H     -1.995856     2.926128     0.002727
C     -0.376019     2.788240    -3.461891
H     -0.884539     0.716462    -3.455457
C     -0.403828     3.975134    -2.761023
H     -1.019768     4.950884    -0.969246
H      0.101540     2.750706    -4.427156
H      0.055304     4.859527    -3.172239
