64
 energy: -101.974007951685 gnorm: 0.078804958175 xtb: 6.7.1 (edcfbbe)
H            2.74458377753729       -2.57025278017832       -0.49173991858341
C            3.21796999123870       -1.94830427365453        0.24193940436144
C            4.84865738818011       -0.70183170698958        1.45150904966690
C            3.37724920086610        0.99149333712835        0.37727845711810
C            3.44908888114561       -0.02784488780399        1.45805787836005
C            3.54591283971851        0.50786928474012       -0.99866903300101
C            4.69434025333537       -1.79067246247696        0.37541050261497
H            5.09490479011209       -1.12434438157570        2.43052917521370
H            3.17969071802433        0.37947511300081        2.43279048661972
H            4.54270473998201        0.08758907325158       -1.18358505991518
H            5.17015333025523       -1.52280117104703       -0.58410768586100
H            5.59916297353515        0.04529037015959        1.15841199348045
H            3.21278587641008        2.05456361813944        0.58368547108168
H            3.40902532587898        1.30891166245679       -1.71732400901154
H            5.15448199066617       -2.72691657082272        0.69655958552277
N            2.53684180061702       -1.17357408893606        1.08411244028529
C            0.84563979641014        0.57635441198337       -1.26871427047619
O            1.36802939617553        0.94741275303447       -2.25573492928907
O            0.46636789156800       -0.00748792005679       -0.31492781741171
H            2.76672313979389       -0.31443059903561       -1.16888282833605
C            1.16996337298301       -1.20771700555038        1.23907153351784
C            0.43397791935401       -0.10319110565526        2.02618632993789
H            0.71613422925413       -0.23028866918768        3.07279381695232
H           -0.62860372616928       -0.34991360109839        1.95852409541097
C            0.37442430446482       -1.84972338000524        0.17138352127202
H            0.74120450664554       -2.83928541691352       -0.06868763545614
H           -0.67497301127443       -1.88498684103528        0.42268401572747
O            0.15725668610686       -1.46742712559760       -3.52288469577775
C           -0.07440643110355       -1.54998056555252       -1.70799772776853
C           -1.40183911758243       -0.79186093883808       -1.59187000070737
H            0.20189352551144       -2.38448385579156       -3.56378528884869
C           -1.77137862154763        0.59355253752373       -1.46123558610647
C           -2.36336330271151       -1.66315928261493       -1.02666124191830
C           -3.03048024922118        0.97258328615451       -0.98381967762799
C           -3.55058990928893       -1.27292152637861       -0.43618061033017
H           -2.12489359220814       -2.71091743628595       -1.00430557534916
C           -3.91905610744802        0.06974673087597       -0.43469404186467
H           -3.30439260072487        2.01914962081538       -0.97879062436303
H           -4.22000781061684       -1.98437726405574        0.02119954782393
N           -5.07159998375231        0.58851206909287        0.23368664829843
O           -5.66712826163282       -0.14936221017336        0.99904850966307
O           -5.36614506859314        1.74925257493748        0.03727667561451
C            0.56910201389211        1.45002784639290        1.68253699943090
C           -0.68038102563592        2.13868264755078        0.99214011281254
C            0.98891943120717        2.10042494944690        2.96649769801442
C           -1.15816323123888        3.37196553759748        1.72636994338254
H           -1.51252529637012        1.42742549499908        1.02556494992722
C            0.42545021124707        3.15290720863495        3.52976980590257
H            1.81938557482533        1.63043753776354        3.46060307803108
C           -0.66830372634249        3.82144424625935        2.87618063962646
H           -1.97049662246892        3.89929480424696        1.24572079735826
H            0.76525103393882        3.51161902902638        4.48969633451719
H           -1.07089729243861        4.69886523653093        3.35289600810414
C           -0.96665965206973        1.84172935269901       -1.60501151883929
C           -0.51872980329635        2.57765917037165       -0.48137598508038
C           -0.72287405706003        2.30518021190500       -2.89943249482383
C            0.10320220367874        3.79980153372369       -0.74336051820868
H            1.42189885451487        1.56953526111500        1.00318310940829
C           -0.03429522945035        3.47756298655454       -3.11825192424176
H           -0.98984623988894        1.66302886257059       -3.72703752181802
C            0.34054483973002        4.24976751511664       -2.03077480676215
H            0.39347207054271        4.42642511051228        0.08811514597818
H            0.18752478123726        3.79379469895054       -4.12577251335222
H            0.80940130955261        5.21434838204748       -2.18948321990688
