%chk=C:\Users\Bane\Desktop\crash.chk
# hf/3-21g geom=connectivity opt=modr

{unknown}

0 1
 H                  3.0181403413007915   -1.8603789714711201   -1.2502040767792812
 C                  3.3475541652119545   -1.0460403383750259   -0.58954972713605047
 C                  4.4972896228286938   -0.36439515093634095    1.448863000609208
 C                  3.3655418178129453    1.3420090019179733   -0.068989729818340687
 C                  3.1597427189263074    0.37294520449981367    1.1440723667973498
 C                  3.4925726267698649    0.3513523831114625   -1.2693055819767185
 C                  4.6296457991901239   -1.3441640677728346    0.24685190519068514
 H                  4.4363088092801872   -0.89599029390942564    2.404273461166988
 H                  2.6643398292224951    0.83734004813205176    2.002398902095436
 H                  4.4527914106747968    0.45238358641882476   -1.7841239509103171
 H                  5.5314230003667948   -1.1591130113584287   -0.34562134665280608
 H                  5.3344437169163728    0.33925502317007611    1.5117894441194419
 H                  4.2987144762865226    1.9066962231779019    0.062613620199864981
 H                  2.7015965886696129    0.51238584151715583   -2.0080475621600549
 H                  4.6535852257733872   -2.3896676923004581    0.5731331293605505
 N                  2.3535938917522374   -0.73909971626534077    0.51084442550124187
 C                  2.230196628613287    2.3410334332609444   -0.19457864810310055
 O                  2.4209573399708337    3.4785455540147079    0.23475005935562715
 O                  1.11401100    1.92169700   -0.73701200
 H                  0.99174500    0.96158200   -1.12296900
 C                  1.1282562644595504   -1.3488281868896634    0.86302690237016755
 C                  0.58500998162499207   -1.1055910854836661    2.2397772516342584
 H                  1.4166848206094533   -1.138466005181682    2.9505558397010954
 H                 -0.063596136857205582   -1.942276576910309    2.5205803613814486
 C                  0.50384200   -2.19892400   -0.00594000
 H                  1.1093084943327389   -2.6691428608043961   -0.78228841216128675
 H                 -0.34221696998224699   -2.7745605218282279    0.35778091862321676
 O                  0.63515900   -0.30626500   -1.78570700
 C                 -0.22786900   -1.18125300   -1.37256000
 C                 -1.6412811543716705   -0.82851453184262869   -1.0154370647504292
 H                 -0.13679635738849352   -2.1215326663804683   -1.9634681568812102
 C                 -2.1955142557363057    0.47486060274250741   -1.0966913845609465
 C                 -2.4671613832327131   -1.8706361409644834   -0.58969140928315045
 C                 -3.5031553397368249    0.66229455622240496   -0.65877752456620498
 C                 -3.7493256219597666   -1.649507743193741   -0.15702500587073107
 H                 -2.0909290805555925   -2.8784275562307182   -0.60692522451988429
 C                 -4.2661447904134686    -0.37303983466476776    -0.17612649311485404
 H                 -3.9418325707470965    1.6445400654515119   -0.68964022428343241
 H                 -4.370263471216111   -2.4560659015420985   0.19562446084711246
 N                 -5.6185824350646563    -0.11713835987679783    0.30597749166685384
 O                 -6.3819642823670364   -1.0779069561146788    0.45883764483298162
 O                 -5.9416069100969429    1.0533895825846411    0.54585060502791183
 C                  -0.17267253130316323    0.1795359419124449    2.4277832643010058
 C                 -1.487654939169293    0.28438775463183524    2.0087457440425043
 C                  0.39633995295643759    1.2706521839001137    3.0691800294557003
 C                 -2.2153343223648192    1.4352352968493285    2.2231978979978972
 H                 -1.9459037541888859    -0.55039876013546929   1.5109322893143093
 C                  -0.31497626796573169    2.4391128343776085    3.2493487165274542
 H                  1.3894618737741129    1.1904548974418403    3.4742832103422523
 C                 -1.6255438053180971    2.5220872215396577    2.8304654299585281
 H                 -3.2479150790766793    1.4791080186987686   1.9183825985216347
 H                  0.15812585577648133    3.2896012962766177    3.71280228664099
 H                 -2.1906647359370619    3.426043568926417    2.987514941674422
 C                 -1.5211440150785989    1.6704365083941086   -1.6599499366681929
 C                  -1.5567722836954363    2.8879126146615253    -0.97827157675378051
 C                 -0.93255658484290305    1.6499365286120886   -2.9221357950936819
 C                  -1.0018625648285922    4.0245721511255859   -1.5206967782035044
 H                  -1.9958558784048719    2.9261276991401681    0.0027270573040162937
 C                  -0.3760190390624607    2.7882395093174632   -3.461890839181462
 H                 -0.88453901122397616    0.71646154451529964   -3.4554572465315228
 C                  -0.40382761773204401    3.9751342124557096   -2.7610227968010177
 H                  -1.0197679561002146    4.9508840434749306    -0.96924594205172088
 H                  0.10153956865205704    2.7507064248938216   -4.4271563568497285
 H                  0.05530350034547702    4.8595268050795326   -3.1722387386983248

 1 2 1.0
 2 6 1.0 7 1.0 16 1.0
 3 5 1.0 7 1.0 8 1.0 12 1.0
 4 5 1.0 6 1.0 13 1.0 17 1.0
 5 9 1.0 16 1.0
 6 10 1.0 14 1.0
 7 11 1.0 15 1.0
 8
 9
 10
 11
 12
 13
 14
 15
 16 21 2.0
 17 18 2.0 19 1.5
 18
 19
 20
 21 22 1.0 25 1.5
 22 23 1.0 24 1.0 43 1.0
 23
 24
 25 26 1.0 27 1.0
 26
 27
 28 29 1.5
 29 30 1.0 31 1.0
 30 32 1.5 33 1.5
 31
 32 34 1.5 54 1.0
 33 35 1.5 36 1.0
 34 37 1.5 38 1.0
 35 37 1.5 39 1.0
 36
 37 40 1.0
 38
 39
 40 41 1.5 42 1.5
 41
 42
 43 44 1.5 45 1.5
 44 46 1.5 47 1.0
 45 48 1.5 49 1.0
 46 50 1.5 51 1.0
 47
 48 50 1.5 52 1.0
 49
 50 53 1.0
 51
 52
 53
 54 55 1.5 56 1.5
 55 57 1.5 58 1.0
 56 59 1.5 60 1.0
 57 61 1.5 62 1.0
 58
 59 61 1.5 63 1.0
 60
 61 64 1.0
 62
 63
 64

 19 F
 20 F
 25 F
 28 F
 29 F
