%chk=C:\Users\Bane\Desktop\crash.chk
# hf/3-21g geom=connectivity opt=modr

{unknown}

0 1
 H                  2.94502500   -1.92024000   -1.20823100
 C                  3.30929100   -1.13525100   -0.55229000
 C                  4.40586500   -0.43889300    1.49350700
 C                  3.40228000    1.25916100   -0.10125100
 C                  3.12117900    0.34078400    1.12192400
 C                  3.57343100    0.21567100   -1.25350900
 C                  4.51396600   -1.49588300    0.34655700
 H                  4.29600800   -0.92105800    2.46884400
 H                  2.61770200    0.83283100    1.95135700
 H                  4.57904500    0.24569500   -1.68036000
 H                  5.45478600   -1.43351800   -0.20524500
 H                  5.26846000    0.22895800    1.54677500
 H                  4.31140500    1.83451700    0.07877800
 H                  2.84782500    0.36507800   -2.05171900
 H                  4.41968300   -2.51309600    0.73688900
 N                  2.31707400   -0.73172400    0.48600000
 C                  2.28662000    2.30910400   -0.25465500
 O                  2.48268700    3.44247500    0.13924200
 O                  1.11401100    1.92169700   -0.73701200
 H                  0.99174500    0.96158200   -1.12296900
 C                  1.15774300   -1.24715900    0.83578800
 C                  0.42431100   -0.62830800    1.99613700
 H                  1.03048500   -0.63774900    2.90702700
 H                 -0.50247900   -1.16698200    2.19017000
 C                  0.50384200   -2.19892400   -0.00594000
 H                  1.16229500   -2.84897100   -0.57519400
 H                 -0.29474200   -2.74949600    0.48293100
 O                  0.63515900   -0.30626500   -1.78570700
 C                 -0.22786900   -1.18125300   -1.37256000
 C                 -1.58723800   -0.72213800   -0.85754200
 H                 -0.38238300   -2.04601200   -2.04684900
 C                 -1.87032300    0.63603300   -0.65697700
 C                 -2.60389400   -1.66700600   -0.63784400
 C                 -3.12939200    1.03994000   -0.21582200
 C                 -3.86422900   -1.28225100   -0.19983900
 H                 -2.40617700   -2.72019100   -0.82312800
 C                 -4.10747200    0.07548500    0.01232900
 H                 -3.36397200    2.08469600   -0.05430000
 H                 -4.65689200   -1.99917900   -0.02710100
 N                 -5.43523300    0.49523900    0.48026100
 O                 -6.27830600   -0.38248200    0.67395600
 O                 -5.62891700    1.69826600    0.65578900
 C                  0.07093275    0.83492793    1.67107633
 C                 -0.77215342    1.12717415    0.59857026
 C                  0.59360815    1.86805048    2.44890431
 C                 -1.09189778    2.45231114    0.30361734
 H                 -1.18344093    0.31249802   -0.01493376
 C                  0.27307494    3.19358913    2.15459900
 H                  1.25796455    1.63788339    3.29435254
 C                 -0.56942272    3.48586812    1.08207501
 H                 -1.75591824    2.68277629   -0.54211261
 H                  0.68500075    4.00793041    2.76830873
 H                 -0.82171770    4.53061076    0.84935974
 C                 -0.78831364    1.69528085   -0.93777895
 C                  0.12171187    2.04442159    0.06043232
 C                 -0.71798962    2.30555207   -2.19004558
 C                  1.10138350    3.00411652   -0.19343944
 H                  0.06552184    1.56367031    1.04783431
 C                  0.26253942    3.26484395   -2.44446998
 H                 -1.43504056    2.03036445   -2.97696282
 C                  1.17208278    3.61429523   -1.44639599
 H                  1.81831627    3.27981986    0.59351137
 H                  0.31800331    3.74555048   -3.43205249
 H                  1.94464200    4.37091058   -1.64635046

 1 2 1.0
 2 6 1.0 7 1.0 16 1.0
 3 5 1.0 7 1.0 8 1.0 12 1.0
 4 5 1.0 6 1.0 13 1.0 17 1.0
 5 9 1.0 16 1.0
 6 10 1.0 14 1.0
 7 11 1.0 15 1.0
 8
 9
 10
 11
 12
 13
 14
 15
 16 21 2.0
 17 18 2.0 19 1.5
 18
 19
 20
 21 22 1.0 25 1.5
 22 23 1.0 24 1.0 43 1.0
 23
 24
 25 26 1.0 27 1.0
 26
 27
 28 29 1.5
 29 30 1.0 31 1.0
 30 32 1.5 33 1.5
 31
 32 34 1.5 54 1.0
 33 35 1.5 36 1.0
 34 37 1.5 38 1.0
 35 37 1.5 39 1.0
 36
 37 40 1.0
 38
 39
 40 41 1.5 42 1.5
 41
 42
 43 44 1.5 45 1.5
 44 46 1.5 47 1.0
 45 48 1.5 49 1.0
 46 50 1.5 51 1.0
 47
 48 50 1.5 52 1.0
 49
 50 53 1.0
 51
 52
 53
 54 55 1.5 56 1.5
 55 57 1.5 58 1.0
 56 59 1.5 60 1.0
 57 61 1.5 62 1.0
 58
 59 61 1.5 63 1.0
 60
 61 64 1.0
 62
 63
 64

 19 F
 20 F
 25 F
 28 F
 29 F
