44
J. Org. Chem. 2009, 74, 5041–5048. DOI: 10.1021/jo900840v.
H      2.945025    -1.920240    -1.208231
C      3.309291    -1.135251    -0.552290
C      4.405865    -0.438893     1.493507
C      3.402280     1.259161    -0.101251
C      3.121179     0.340784     1.121924
C      3.573431     0.215671    -1.253509
C      4.513966    -1.495883     0.346557
H      4.296008    -0.921058     2.468844
H      2.617702     0.832831     1.951357
H      4.579045     0.245695    -1.680360
H      5.454786    -1.433518    -0.205245
H      5.268460     0.228958     1.546775
H      4.311405     1.834517     0.078778
H      2.847825     0.365078    -2.051719
H      4.419683    -2.513096     0.736889
N      2.317074    -0.731724     0.486000
C      2.286620     2.309104    -0.254655
O      2.482687     3.442475     0.139242
O      1.114011     1.921697    -0.737012
H      0.991745     0.961582    -1.122969
C      1.157743    -1.247159     0.835788
C      0.424311    -0.628308     1.996137
H      1.030485    -0.637749     2.907027
H     -0.502479    -1.166982     2.190170
H      0.172782     0.413200     1.764764
C      0.503842    -2.198924    -0.005940
H      1.162295    -2.848971    -0.575194
H     -0.294742    -2.749496     0.482931
O      0.635159    -0.306265    -1.785707
C     -0.227869    -1.181253    -1.372560
C     -1.587238    -0.722138    -0.857542
H     -0.382383    -2.046012    -2.046849
C     -1.870323     0.636033    -0.656977
C     -2.603894    -1.667006    -0.637844
C     -3.129392     1.039940    -0.215822
H     -1.109211     1.381134    -0.854500
C     -3.864229    -1.282251    -0.199839
H     -2.406177    -2.720191    -0.823128
C     -4.107472     0.075485     0.012329
H     -3.363972     2.084696    -0.054300
H     -4.656892    -1.999179    -0.027101
N     -5.435233     0.495239     0.480261
O     -6.278306    -0.382482     0.673956
O     -5.628917     1.698266     0.655789
