64
Converted from Gaussian clipboard
H      2.945025    -1.920240    -1.208231
C      3.309291    -1.135251    -0.552290
C      4.405865    -0.438893     1.493507
C      3.402280     1.259161    -0.101251
C      3.121179     0.340784     1.121924
C      3.573431     0.215671    -1.253509
C      4.513966    -1.495883     0.346557
H      4.296008    -0.921058     2.468844
H      2.617702     0.832831     1.951357
H      4.579045     0.245695    -1.680360
H      5.454786    -1.433518    -0.205245
H      5.268460     0.228958     1.546775
H      4.311405     1.834517     0.078778
H      2.847825     0.365078    -2.051719
H      4.419683    -2.513096     0.736889
N      2.317074    -0.731724     0.486000
C      2.286620     2.309104    -0.254655
O      2.482687     3.442475     0.139242
O      1.114011     1.921697    -0.737012
H      0.991745     0.961582    -1.122969
C      1.157743    -1.247159     0.835788
C      0.424311    -0.628308     1.996137
H      1.030485    -0.637749     2.907027
H     -0.502479    -1.166982     2.190170
C      0.503842    -2.198924    -0.005940
H      1.162295    -2.848971    -0.575194
H     -0.294742    -2.749496     0.482931
O      0.635159    -0.306265    -1.785707
C     -0.227869    -1.181253    -1.372560
C     -1.587238    -0.722138    -0.857542
H     -0.382383    -2.046012    -2.046849
C     -1.870323     0.636033    -0.656977
C     -2.603894    -1.667006    -0.637844
C     -3.129392     1.039940    -0.215822
C     -3.864229    -1.282251    -0.199839
H     -2.406177    -2.720191    -0.823128
C     -4.107472     0.075485     0.012329
H     -3.363972     2.084696    -0.054300
H     -4.656892    -1.999179    -0.027101
N     -5.435233     0.495239     0.480261
O     -6.278306    -0.382482     0.673956
O     -5.628917     1.698266     0.655789
C      0.070933     0.834928     1.671076
C     -0.772153     1.127174     0.598570
C      0.593608     1.868050     2.448904
C     -1.091898     2.452311     0.303617
H     -1.183441     0.312498    -0.014934
C      0.273075     3.193589     2.154599
H      1.257965     1.637883     3.294353
C     -0.569423     3.485868     1.082075
H     -1.755918     2.682776    -0.542113
H      0.685001     4.007930     2.768309
H     -0.821718     4.530611     0.849360
C     -0.788314     1.695281    -0.937779
C      0.121712     2.044422     0.060432
C     -0.717990     2.305552    -2.190046
C      1.101383     3.004117    -0.193439
H      0.065522     1.563670     1.047834
C      0.262539     3.264844    -2.444470
H     -1.435041     2.030364    -2.976963
C      1.172083     3.614295    -1.446396
H      1.818316     3.279820     0.593511
H      0.318003     3.745550    -3.432052
H      1.944642     4.370911    -1.646350
