      -----------------------------------------------------------      
     |                   =====================                   |     
     |                           x T B                           |     
     |                   =====================                   |     
     |                         S. Grimme                         |     
     |          Mulliken Center for Theoretical Chemistry        |     
     |                    University of Bonn                     |     
      -----------------------------------------------------------      

   * xtb version 6.7.1 (edcfbbe) compiled by 'albert@albert-system' on 2024-07-22

   xtb is free software: you can redistribute it and/or modify it under
   the terms of the GNU Lesser General Public License as published by
   the Free Software Foundation, either version 3 of the License, or
   (at your option) any later version.
   
   xtb is distributed in the hope that it will be useful,
   but WITHOUT ANY WARRANTY; without even the implied warranty of
   MERCHANTABILITY or FITNESS FOR A PARTICULAR PURPOSE.  See the
   GNU Lesser General Public License for more details.
   
   Cite this work as:
   * C. Bannwarth, E. Caldeweyher, S. Ehlert, A. Hansen, P. Pracht,
     J. Seibert, S. Spicher, S. Grimme, WIREs Comput. Mol. Sci., 2020, 11,
     e01493. DOI: 10.1002/wcms.1493
   
   for GFN2-xTB:
   * C. Bannwarth, S. Ehlert and S. Grimme., J. Chem. Theory Comput., 2019,
     15, 1652-1671. DOI: 10.1021/acs.jctc.8b01176
   for GFN1-xTB:
   * S. Grimme, C. Bannwarth, P. Shushkov, J. Chem. Theory Comput., 2017,
     13, 1989-2009. DOI: 10.1021/acs.jctc.7b00118
   for GFN0-xTB:
   * P. Pracht, E. Caldeweyher, S. Ehlert, S. Grimme, ChemRxiv, 2019, preprint.
     DOI: 10.26434/chemrxiv.8326202.v1
   for GFN-FF:
   * S. Spicher and S. Grimme, Angew. Chem. Int. Ed., 2020, 59, 15665-15673.
     DOI: 10.1002/anie.202004239
   
   for ALPB and GBSA implicit solvation:
   * S. Ehlert, M. Stahn, S. Spicher, S. Grimme, J. Chem. Theory Comput.,
     2021, 17, 4250-4261. DOI: 10.1021/acs.jctc.1c00471
   
   for ddCOSMO and CPCM-X implicit solvation:
   * M. Stahn, S. Ehlert, S. Grimme, J. Phys. Chem. A,
     2023, XX, XXXX-XXXX. DOI: 10.1021/acs.jpca.3c04382
   
   for DFT-D4:
   * E. Caldeweyher, C. Bannwarth and S. Grimme, J. Chem. Phys., 2017,
     147, 034112. DOI: 10.1063/1.4993215
   * E. Caldeweyher, S. Ehlert, A. Hansen, H. Neugebauer, S. Spicher,
     C. Bannwarth and S. Grimme, J. Chem. Phys., 2019, 150, 154122.
     DOI: 10.1063/1.5090222
   * E. Caldeweyher, J.-M. Mewes, S. Ehlert and S. Grimme, Phys. Chem. Chem. Phys.
     2020, 22, 8499-8512. DOI: 10.1039/D0CP00502A
   
   for sTDA-xTB:
   * S. Grimme and C. Bannwarth, J. Chem. Phys., 2016, 145, 054103.
     DOI: 10.1063/1.4959605
   
   in the mass-spec context:
   * V. Asgeirsson, C. Bauer and S. Grimme, Chem. Sci., 2017, 8, 4879.
     DOI: 10.1039/c7sc00601b
   * J. Koopman and S. Grimme, ACS Omega 2019, 4, 12, 15120-15133.
     DOI: 10.1021/acsomega.9b02011
   
   for metadynamics refer to:
   * S. Grimme, J. Chem. Theory Comput., 2019, 155, 2847-2862
     DOI: 10.1021/acs.jctc.9b00143
   
   for SPH calculations refer to:
   * S. Spicher and S. Grimme, J. Chem. Theory Comput., 2021, 17, 1701-1714
     DOI: 10.1021/acs.jctc.0c01306
   
   for ONIOM refer to:
   * C. Plett, A. Katbashev, S. Ehlert, S. Grimme, M. Bursch,
     Phys. Chem. Chem. Phys., 2023, 25, 17860-17868. DOI: 10.1039/D3CP02178E
   
   for DIPRO refer to:
   * J. Kohn, N. Gildemeister, S. Grimme, D. Fazzi, A. Hansen,
     J. Chem. Phys., 2023, just accepted.
   
   for PTB refer to:
   * S. Grimme, M. Mueller, A. Hansen, J. Chem. Phys., 2023, 158, 124111.
     DOI: 10.1063/5.0137838
   
   with help from (in alphabetical order)
   P. Atkinson, C. Bannwarth, F. Bohle, G. Brandenburg, E. Caldeweyher
   M. Checinski, S. Dohm, S. Ehlert, S. Ehrlich, I. Gerasimov, C. Hölzer
   A. Katbashev, J. Kohn, J. Koopman, C. Lavigne, S. Lehtola, F. März, M. Müller,
   F. Musil, H. Neugebauer, J. Pisarek, C. Plett, P. Pracht, F. Pultar,
   J. Seibert, P. Shushkov, S. Spicher, M. Stahn, M. Steiner, T. Strunk,
   J. Stückrath, T. Rose, and J. Unsleber
   
 * started run on 2026/09/15 at 23:30:27.687     
   ID    Z sym.   atoms
    1    1 H      1, 8-15, 20, 23, 24, 26, 27, 31, 36, 38, 39, 47, 49, 51-53,
                  58, 60, 62-64
    2    6 C      2-7, 17, 21, 22, 25, 29, 30, 32-35, 37, 43-46, 48, 50,
                  54-57, 59, 61
    3    7 N      16, 40
    4    8 O      18, 19, 28, 41, 42

           -------------------------------------------------
          |                Calculation Setup                |
           -------------------------------------------------

          program call               : xtb --opt --gfn 2 --input in crash.xyz
          hostname                   : curie-cpu015
          coordinate file            : crash.xyz
          omp threads                :                    16


           -------------------------------------------------
          |                 G F N 2 - x T B                 |
           -------------------------------------------------

        Reference                      10.1021/acs.jctc.8b01176
      * Hamiltonian:
        H0-scaling (s, p, d)           1.850000    2.230000    2.230000
        zeta-weighting                 0.500000
      * Dispersion:
        s8                             2.700000
        a1                             0.520000
        a2                             5.000000
        s9                             5.000000
      * Repulsion:
        kExp                           1.500000    1.000000
        rExp                           1.000000
      * Coulomb:
        alpha                          2.000000
        third order                    shell-resolved
        anisotropic                    true
        a3                             3.000000
        a5                             4.000000
        cn-shift                       1.200000
        cn-exp                         4.000000
        max-rad                        5.000000


          ...................................................
          :                      SETUP                      :
          :.................................................:
          :  # basis functions                 172          :
          :  # atomic orbitals                 172          :
          :  # shells                          100          :
          :  # electrons                       184          :
          :  max. iterations                   250          :
          :  Hamiltonian                  GFN2-xTB          :
          :  restarted?                      false          :
          :  GBSA solvation                  false          :
          :  PC potential                    false          :
          :  electronic temp.          300.0000000     K    :
          :  accuracy                    1.0000000          :
          :  -> integral cutoff          0.2500000E+02      :
          :  -> integral neglect         0.1000000E-07      :
          :  -> SCF convergence          0.1000000E-05 Eh   :
          :  -> wf. convergence          0.1000000E-03 e    :
          :  Broyden damping             0.4000000          :
          :  net charge                          0          :
          :  unpaired electrons                  0          :
          ...................................................

 iter      E             dE          RMSdq      gap      omega  full diag
   1   -101.0769151 -0.101077E+03  0.428E+00    0.21       0.0  T
   2    -99.0438271  0.203309E+01  0.492E+00    0.28       1.0  T
   3   -101.5409058 -0.249708E+01  0.318E+00    0.46       1.0  T
   4   -102.0224336 -0.481528E+00  0.181E+00    0.26       1.0  T
   5   -101.6196513  0.402782E+00  0.216E+00    0.60       1.0  T
   6   -101.9318196 -0.312168E+00  0.129E+00    0.63       1.0  T
   7   -102.0877117 -0.155892E+00  0.418E-01    0.24       1.0  T
   8   -102.0948391 -0.712739E-02  0.216E-01    0.22       1.0  T
   9   -102.0825141  0.123251E-01  0.394E-01    0.24       1.0  T
  10   -102.0978344 -0.153203E-01  0.116E-01    0.22       1.0  T
  11   -102.0969828  0.851652E-03  0.133E-01    0.22       1.0  T
  12   -102.0988205 -0.183770E-02  0.184E-02    0.22       1.0  T
  13   -102.0988399 -0.194856E-04  0.142E-02    0.22       1.0  T
  14   -102.0988453 -0.538089E-05  0.895E-03    0.22       1.4  T
  15   -102.0988521 -0.681836E-05  0.244E-03    0.22       5.1  T
  16   -102.0988521 -0.438021E-08  0.231E-03    0.22       5.4  T
  17   -102.0988525 -0.357234E-06  0.111E-03    0.22      11.2  T
  18   -102.0988526 -0.108012E-06  0.352E-04    0.22      35.5  T
  19   -102.0988526 -0.127793E-07  0.734E-05    0.22     170.2  T

   *** convergence criteria satisfied after 19 iterations ***

         #    Occupation            Energy/Eh            Energy/eV
      -------------------------------------------------------------
         1        2.0000           -0.9273595             -25.2347
       ...           ...                  ...                  ...
        86        2.0000           -0.3920706             -10.6688
        87        2.0000           -0.3879605             -10.5569
        88        2.0000           -0.3844596             -10.4617
        89        2.0000           -0.3458052              -9.4098
        90        2.0000           -0.3298794              -8.9765
        91        2.0000           -0.2991387              -8.1400
        92        1.9704           -0.2920877              -7.9481 (HOMO)
        93        0.0296           -0.2841132              -7.7311 (LUMO)
        94                         -0.2715511              -7.3893
        95                         -0.2530656              -6.8863
        96                         -0.2209343              -6.0119
        97                         -0.2022225              -5.5028
       ...                                ...                  ...
       172                          1.4651611              39.8691
      -------------------------------------------------------------
                  HL-Gap            0.0079746 Eh            0.2170 eV
             Fermi-level           -0.2881002 Eh           -7.8396 eV

 SCC (total)                   0 d,  0 h,  0 min,  0.641 sec
 SCC setup                      ...        0 min,  0.004 sec (  0.645%)
 Dispersion                     ...        0 min,  0.012 sec (  1.925%)
 classical contributions        ...        0 min,  0.000 sec (  0.078%)
 integral evaluation            ...        0 min,  0.034 sec (  5.377%)
 iterations                     ...        0 min,  0.562 sec ( 87.694%)
 molecular gradient             ...        0 min,  0.026 sec (  4.039%)
 printout                       ...        0 min,  0.001 sec (  0.227%)

         :::::::::::::::::::::::::::::::::::::::::::::::::::::
         ::                     SUMMARY                     ::
         :::::::::::::::::::::::::::::::::::::::::::::::::::::
         :: total energy            -100.355201469569 Eh    ::
         :: gradient norm              1.251762026419 Eh/a0 ::
         :: HOMO-LUMO gap              0.216999071791 eV    ::
         ::.................................................::
         :: SCC energy              -102.094495741977 Eh    ::
         :: -> isotropic ES            0.215315000791 Eh    ::
         :: -> anisotropic ES          0.036331822806 Eh    ::
         :: -> anisotropic XC          0.010000646290 Eh    ::
         :: -> dispersion             -0.102157692866 Eh    ::
         :: repulsion energy           1.739294272408 Eh    ::
         :: add. restraining           0.000000000000 Eh    ::
         :: total charge               0.000000000001 e     ::
         :::::::::::::::::::::::::::::::::::::::::::::::::::::

      ----------------------------------------------------------- 
     |              Fast Inertial Relaxation Engine              |
      ----------------------------------------------------------- 

          ...................................................
          :                      SETUP                      :
          :.................................................:
          :   energy convergence        0.5000000E-05 Eh    :
          :   grad. convergence         0.1000000E-02 Eh/a0 :
          :   optimization log               true           :
          :   writing optlog all                1     steps :
          :   Hessian reset                    20     steps :
          :   time step scaling                 5     steps :
          :   maximium step len.        1.0000000     a0    :
          :   initial time step         0.2500000     fs    :
          :   maximum time step         1.2500000     fs    :
          :   power reset thr           0.0000000     au    :
          :   alpha parameter           0.1000000           :
          :   BFGS update                   false           :
          :   preconditioning               false           :
          ...................................................

........................................................................
.............................. CYCLE    1 ..............................
........................................................................

 iter      E             dE          RMSdq      gap      omega  full diag
   1   -102.1578629 -0.102158E+03  0.273E-01    0.23       0.0  T
   2   -102.0144531  0.143410E+00  0.109E+00    0.49       1.0  T
   3   -102.1529320 -0.138479E+00  0.359E-01    0.25       1.0  T
   4   -102.1544669 -0.153489E-02  0.294E-01    0.23       1.0  T
   5   -102.1640038 -0.953694E-02  0.127E-01    0.23       1.0  T
   6   -102.1654518 -0.144803E-02  0.423E-02    0.23       1.0  T
   7   -102.1654529 -0.106970E-05  0.280E-02    0.23       1.0  T
   8   -102.1654829 -0.299411E-04  0.250E-02    0.23       1.0  T
   9   -102.1655372 -0.543763E-04  0.776E-03    0.23       1.6  T
  10   -102.1655416 -0.441493E-05  0.332E-03    0.23       3.8  T
  11   -102.1655424 -0.729188E-06  0.191E-03    0.23       6.5  T
  12   -102.1655426 -0.221808E-06  0.114E-03    0.23      11.0  T
  13   -102.1655427 -0.126878E-06  0.155E-04    0.23      80.5  T
  14   -102.1655427  0.450413E-09  0.135E-04    0.23      92.4  T
     SCC iter.                  ...        0 min,  0.222 sec
     gradient                   ...        0 min,  0.025 sec
 * total energy  :  -100.4999492 Eh     change    :  -0.1447477E+00 Eh
   gradient norm :     0.9723629 Eh/a0  converged?    E=F G=F D=F
   time step     :     0.2500000 fs     power     :   0.6993771E-05
   step length   :     0.1363206 a0     speed     :   0.1318975E-01

........................................................................
.............................. CYCLE    2 ..............................
........................................................................

 iter      E             dE          RMSdq      gap      omega  full diag
   1   -102.2350053 -0.102235E+03  0.406E-01    0.23       0.0  T
   2   -102.0586153  0.176390E+00  0.122E+00    0.52       1.0  T
   3   -102.2332946 -0.174679E+00  0.445E-01    0.26       1.0  T
   4   -102.2394151 -0.612045E-02  0.319E-01    0.23       1.0  T
   5   -102.2488298 -0.941469E-02  0.161E-01    0.23       1.0  T
   6   -102.2501842 -0.135447E-02  0.108E-01    0.24       1.0  T
   7   -102.2512136 -0.102942E-02  0.154E-02    0.24       1.0  T
   8   -102.2511554  0.582359E-04  0.273E-02    0.24       1.0  T
   9   -102.2512255 -0.701240E-04  0.383E-03    0.24       3.3  T
  10   -102.2512244  0.117786E-05  0.448E-03    0.24       2.8  T
  11   -102.2512254 -0.108342E-05  0.301E-03    0.24       4.2  T
  12   -102.2512262 -0.779147E-06  0.129E-03    0.24       9.7  T
  13   -102.2512264 -0.155532E-06  0.202E-04    0.24      61.8  T
  14   -102.2512264 -0.923706E-10  0.145E-04    0.24      86.1  T
     SCC iter.                  ...        0 min,  0.141 sec
     gradient                   ...        0 min,  0.025 sec
 * total energy  :  -100.6654991 Eh     change    :  -0.1655499E+00 Eh
   gradient norm :     0.7748347 Eh/a0  converged?    E=F G=F D=F
   time step     :     0.2500000 fs     power     :   0.7720676E-05
   step length   :     0.1930330 a0     speed     :   0.1867698E-01

........................................................................
.............................. CYCLE    3 ..............................
........................................................................

 iter      E             dE          RMSdq      gap      omega  full diag
   1   -102.3192317 -0.102319E+03  0.515E-01    0.22       0.0  T
   2   -102.1242266  0.195005E+00  0.131E+00    0.55       1.0  T
   3   -102.3146746 -0.190448E+00  0.580E-01    0.26       1.0  T
   4   -102.3358501 -0.211755E-01  0.308E-01    0.22       1.0  T
   5   -102.3419933 -0.614321E-02  0.192E-01    0.22       1.0  T
   6   -102.3425417 -0.548390E-03  0.170E-01    0.23       1.0  T
   7   -102.3450108 -0.246909E-02  0.607E-02    0.22       1.0  T
   8   -102.3453359 -0.325074E-03  0.149E-02    0.22       1.0  T
   9   -102.3453120  0.238197E-04  0.220E-02    0.22       1.0  T
  10   -102.3453611 -0.490159E-04  0.225E-03    0.22       5.6  T
  11   -102.3453608  0.223831E-06  0.214E-03    0.22       5.8  T
  12   -102.3453610 -0.188236E-06  0.167E-03    0.22       7.5  T
  13   -102.3453613 -0.254980E-06  0.314E-04    0.22      39.8  T
  14   -102.3453613 -0.414278E-08  0.170E-04    0.22      73.5  T
     SCC iter.                  ...        0 min,  0.240 sec
     gradient                   ...        0 min,  0.019 sec
 * total energy  :  -100.8221314 Eh     change    :  -0.1566323E+00 Eh
   gradient norm :     0.6119034 Eh/a0  converged?    E=F G=F D=F
   time step     :     0.2500000 fs     power     :   0.7107558E-05
   step length   :     0.2371384 a0     speed     :   0.2294442E-01

........................................................................
.............................. CYCLE    4 ..............................
........................................................................

 iter      E             dE          RMSdq      gap      omega  full diag
   1   -102.4026651 -0.102403E+03  0.601E-01    0.20       0.0  T
   2   -102.1926181  0.210047E+00  0.139E+00    0.57       1.0  T
   3   -102.3821820 -0.189564E+00  0.781E-01    0.26       1.0  T
   4   -102.4234547 -0.412726E-01  0.401E-01    0.20       1.0  T
   5   -102.4151097  0.834500E-02  0.489E-01    0.20       1.0  T
   6   -102.4396636 -0.245539E-01  0.100E-01    0.19       1.0  T
   7   -102.4399953 -0.331753E-03  0.328E-02    0.19       1.0  T
   8   -102.4399961 -0.803225E-06  0.284E-02    0.19       1.0  T
   9   -102.4400555 -0.593227E-04  0.182E-02    0.19       1.0  T
  10   -102.4400865 -0.310670E-04  0.463E-03    0.19       2.7  T
  11   -102.4400883 -0.176346E-05  0.160E-03    0.19       7.8  T
  12   -102.4400879  0.349346E-06  0.234E-03    0.19       5.3  T
  13   -102.4400884 -0.416247E-06  0.111E-03    0.19      11.3  T
  14   -102.4400885 -0.109349E-06  0.339E-04    0.19      36.8  T
  15   -102.4400885 -0.840244E-08  0.210E-04    0.19      59.6  T
     SCC iter.                  ...        0 min,  0.143 sec
     gradient                   ...        0 min,  0.013 sec
 * total energy  :  -100.9555635 Eh     change    :  -0.1334321E+00 Eh
   gradient norm :     0.4985688 Eh/a0  converged?    E=F G=F D=F
   time step     :     0.2500000 fs     power     :   0.5905012E-05
   step length   :     0.2693773 a0     speed     :   0.2606370E-01

........................................................................
.............................. CYCLE    5 ..............................
........................................................................

 iter      E             dE          RMSdq      gap      omega  full diag
   1   -102.4793052 -0.102479E+03  0.658E-01    0.17       0.0  T
   2   -102.2398063  0.239499E+00  0.148E+00    0.50       1.0  T
   3   -102.4487495 -0.208943E+00  0.905E-01    0.29       1.0  T
   4   -102.4864667 -0.377173E-01  0.597E-01    0.21       1.0  T
   5   -102.5056713 -0.192046E-01  0.494E-01    0.19       1.0  T
   6   -102.5264118 -0.207405E-01  0.179E-01    0.14       1.0  T
   7   -102.5290176 -0.260577E-02  0.817E-02    0.17       1.0  T
   8   -102.5296696 -0.652013E-03  0.291E-02    0.15       1.0  T
   9   -102.5297189 -0.493174E-04  0.168E-02    0.16       1.0  T
  10   -102.5297422 -0.232892E-04  0.761E-03    0.16       1.6  T
  11   -102.5297470 -0.473810E-05  0.297E-03    0.15       4.2  T
  12   -102.5297478 -0.873395E-06  0.894E-04    0.15      14.0  T
  13   -102.5297475  0.331350E-06  0.183E-03    0.15       6.8  T
  14   -102.5297479 -0.357952E-06  0.195E-04    0.15      64.3  T
     SCC iter.                  ...        0 min,  0.129 sec
     gradient                   ...        0 min,  0.015 sec
 * total energy  :  -101.0631382 Eh     change    :  -0.1075747E+00 Eh
   gradient norm :     0.4373008 Eh/a0  converged?    E=F G=F D=F
   time step     :     0.2500000 fs     power     :   0.4669214E-05
   step length   :     0.2906620 a0     speed     :   0.2812311E-01

........................................................................
.............................. CYCLE    6 ..............................
........................................................................

 iter      E             dE          RMSdq      gap      omega  full diag
   1   -102.5481995 -0.102548E+03  0.707E-01    0.19       0.0  T
   2   -102.0656756  0.482524E+00  0.197E+00    0.32       1.0  T
   3   -102.5116156 -0.445940E+00  0.983E-01    0.40       1.0  T
   4   -102.5830400 -0.714244E-01  0.508E-01    0.20       1.0  T
   5   -102.6075532 -0.245132E-01  0.333E-01    0.17       1.0  T
   6   -102.6146068 -0.705361E-02  0.203E-01    0.15       1.0  T
   7   -102.6127227  0.188408E-02  0.227E-01    0.16       1.0  T
   8   -102.6175291 -0.480639E-02  0.503E-02    0.15       1.0  T
   9   -102.6174919  0.372445E-04  0.507E-02    0.15       1.0  T
  10   -102.6176876 -0.195752E-03  0.210E-02    0.15       1.0  T
  11   -102.6176815  0.613800E-05  0.200E-02    0.15       1.0  T
  12   -102.6177170 -0.355178E-04  0.276E-03    0.15       4.5  T
  13   -102.6177174 -0.405097E-06  0.118E-03    0.15      10.6  T
  14   -102.6177174  0.323939E-07  0.953E-04    0.15      13.1  T
  15   -102.6177175 -0.993551E-07  0.208E-04    0.15      60.1  T
     SCC iter.                  ...        0 min,  0.308 sec
     gradient                   ...        0 min,  0.014 sec
 * total energy  :  -101.1577858 Eh     change    :  -0.9464759E-01 Eh
   gradient norm :     0.4123780 Eh/a0  converged?    E=F G=F D=F
   time step     :     0.2750000 fs     power     :   0.3647738E-05
   step length   :     0.3344466 a0     speed     :   0.2941773E-01

........................................................................
.............................. CYCLE    7 ..............................
........................................................................

 iter      E             dE          RMSdq      gap      omega  full diag
   1   -102.6059035 -0.102606E+03  0.748E-01    0.25       0.0  T
   2   -101.5654667  0.104044E+01  0.286E+00    0.41       1.0  T
   3   -102.5297429 -0.964276E+00  0.113E+00    0.51       1.0  T
   4   -102.6705922 -0.140849E+00  0.508E-01    0.15       1.0  T
   5   -102.6429400  0.276522E-01  0.648E-01    0.22       1.0  T
   6   -102.6941258 -0.511858E-01  0.187E-01    0.16       1.0  T
   7   -102.6934811  0.644730E-03  0.173E-01    0.16       1.0  T
   8   -102.6931302  0.350925E-03  0.172E-01    0.16       1.0  T
   9   -102.6958044 -0.267425E-02  0.769E-02    0.16       1.0  T
  10   -102.6958947 -0.902556E-04  0.637E-02    0.16       1.0  T
  11   -102.6959550 -0.603298E-04  0.536E-02    0.16       1.0  T
  12   -102.6960840 -0.129058E-03  0.325E-02    0.16       1.0  T
  13   -102.6961188 -0.347843E-04  0.217E-02    0.16       1.0  T
  14   -102.6961463 -0.274544E-04  0.756E-03    0.16       1.7  T
  15   -102.6961490 -0.270937E-05  0.347E-03    0.16       3.6  T
  16   -102.6961491 -0.867746E-07  0.257E-03    0.16       4.9  T
  17   -102.6961495 -0.416826E-06  0.138E-03    0.16       9.1  T
  18   -102.6961497 -0.158113E-06  0.398E-04    0.16      31.4  T
  19   -102.6961497 -0.778624E-08  0.140E-04    0.16      89.4  T
     SCC iter.                  ...        0 min,  0.478 sec
     gradient                   ...        0 min,  0.015 sec
 * total energy  :  -101.2437739 Eh     change    :  -0.8598811E-01 Eh
   gradient norm :     0.3937420 Eh/a0  converged?    E=F G=F D=F
   time step     :     0.3025000 fs     power     :   0.2984331E-05
   step length   :     0.3756573 a0     speed     :   0.3003873E-01

........................................................................
.............................. CYCLE    8 ..............................
........................................................................

 iter      E             dE          RMSdq      gap      omega  full diag
   1   -102.6441606 -0.102644E+03  0.824E-01    0.32       0.0  T
   2   -101.2993400  0.134482E+01  0.322E+00    0.50       1.0  T
   3   -102.5597228 -0.126038E+01  0.119E+00    0.38       1.0  T
   4   -102.6746348 -0.114912E+00  0.912E-01    0.14       1.0  T
   5   -102.6840870 -0.945224E-02  0.730E-01    0.21       1.0  T
   6   -102.7515642 -0.674772E-01  0.244E-01    0.16       1.0  T
   7   -102.7554953 -0.393111E-02  0.166E-01    0.16       1.0  T
   8   -102.7565342 -0.103886E-02  0.102E-01    0.16       1.0  T
   9   -102.7568241 -0.289957E-03  0.898E-02    0.16       1.0  T
  10   -102.7571749 -0.350791E-03  0.666E-02    0.16       1.0  T
  11   -102.7570881  0.867706E-04  0.688E-02    0.16       1.0  T
  12   -102.7573159 -0.227800E-03  0.429E-02    0.16       1.0  T
  13   -102.7573848 -0.688477E-04  0.283E-02    0.17       1.0  T
  14   -102.7574276 -0.428284E-04  0.134E-02    0.17       1.0  T
  15   -102.7574348 -0.719037E-05  0.842E-03    0.17       1.5  T
  16   -102.7574374 -0.262956E-05  0.468E-03    0.17       2.7  T
  17   -102.7574389 -0.149165E-05  0.225E-03    0.17       5.6  T
  18   -102.7574392 -0.299702E-06  0.708E-04    0.17      17.6  T
  19   -102.7574393 -0.284936E-07  0.178E-04    0.17      70.2  T
     SCC iter.                  ...        0 min,  0.475 sec
     gradient                   ...        0 min,  0.018 sec
 * total energy  :  -101.3249941 Eh     change    :  -0.8122018E-01 Eh
   gradient norm :     0.3506829 Eh/a0  converged?    E=F G=F D=F
   time step     :     0.3327500 fs     power     :   0.2557173E-05
   step length   :     0.4164678 a0     speed     :   0.3027460E-01

........................................................................
.............................. CYCLE    9 ..............................
........................................................................

 iter      E             dE          RMSdq      gap      omega  full diag
   1   -102.6637397 -0.102664E+03  0.943E-01    0.37       0.0  T
   2   -101.1619465  0.150179E+01  0.335E+00    0.34       1.0  T
   3   -102.6264349 -0.146449E+01  0.121E+00    0.24       1.0  T
   4   -102.7436069 -0.117172E+00  0.648E-01    0.07       1.0  T
   5   -102.7288588  0.147481E-01  0.703E-01    0.18       1.0  T
   6   -102.7955525 -0.666937E-01  0.240E-01    0.16       1.0  T
   7   -102.7962024 -0.649948E-03  0.188E-01    0.12       1.0  T
   8   -102.7944895  0.171292E-02  0.198E-01    0.15       1.0  T
   9   -102.7980062 -0.351664E-02  0.686E-02    0.14       1.0  T
  10   -102.7983695 -0.363375E-03  0.558E-02    0.14       1.0  T
  11   -102.7981559  0.213584E-03  0.643E-02    0.15       1.0  T
  12   -102.7984682 -0.312214E-03  0.322E-02    0.15       1.0  T
  13   -102.7985467 -0.785069E-04  0.863E-03    0.15       1.4  T
  14   -102.7985490 -0.233407E-05  0.467E-03    0.15       2.7  T
  15   -102.7985503 -0.126223E-05  0.385E-03    0.15       3.2  T
  16   -102.7985512 -0.899818E-06  0.248E-03    0.15       5.0  T
  17   -102.7985516 -0.460300E-06  0.134E-03    0.15       9.3  T
  18   -102.7985518 -0.135696E-06  0.389E-04    0.15      32.1  T
  19   -102.7985518 -0.859916E-08  0.161E-04    0.15      77.6  T
     SCC iter.                  ...        0 min,  0.208 sec
     gradient                   ...        0 min,  0.014 sec
 * total energy  :  -101.3988593 Eh     change    :  -0.7386525E-01 Eh
   gradient norm :     0.2928735 Eh/a0  converged?    E=F G=F D=F
   time step     :     0.3660250 fs     power     :   0.1909572E-05
   step length   :     0.4594539 a0     speed     :   0.3036312E-01

........................................................................
.............................. CYCLE   10 ..............................
........................................................................

 iter      E             dE          RMSdq      gap      omega  full diag
   1   -102.6687028 -0.102669E+03  0.113E+00    0.39       0.0  T
   2   -101.2759617  0.139274E+01  0.321E+00    0.21       1.0  T
   3   -102.6095886 -0.133363E+01  0.151E+00    0.30       1.0  T
   4   -102.6041494  0.543920E-02  0.119E+00    0.28       1.0  T
   5   -102.8013532 -0.197204E+00  0.473E-01    0.08       1.0  T
   6   -102.8163941 -0.150410E-01  0.235E-01    0.08       1.0  T
   7   -102.8125679  0.382622E-02  0.313E-01    0.08       1.0  T
   8   -102.8179620 -0.539412E-02  0.124E-01    0.10       1.0  T
   9   -102.8195908 -0.162880E-02  0.557E-02    0.11       1.0  T
  10   -102.8197685 -0.177732E-03  0.300E-02    0.11       1.0  T
  11   -102.8197642  0.435816E-05  0.311E-02    0.11       1.0  T
  12   -102.8198192 -0.550377E-04  0.159E-02    0.10       1.0  T
  13   -102.8198321 -0.129165E-04  0.739E-03    0.10       1.7  T
  14   -102.8198316  0.541689E-06  0.640E-03    0.10       2.0  T
  15   -102.8198352 -0.362093E-05  0.194E-03    0.10       6.4  T
  16   -102.8198356 -0.382885E-06  0.667E-04    0.10      18.8  T
  17   -102.8198356 -0.324211E-07  0.376E-04    0.10      33.2  T
     SCC iter.                  ...        0 min,  0.162 sec
     gradient                   ...        0 min,  0.015 sec
 * total energy  :  -101.4568638 Eh     change    :  -0.5800452E-01 Eh
   gradient norm :     0.2678843 Eh/a0  converged?    E=F G=F D=F
   time step     :     0.4026275 fs     power     :   0.1192893E-05
   step length   :     0.5006579 a0     speed     :   0.3007826E-01

........................................................................
.............................. CYCLE   11 ..............................
........................................................................

 iter      E             dE          RMSdq      gap      omega  full diag
   1   -102.7034348 -0.102703E+03  0.123E+00    0.32       0.0  T
   2   -101.9982581  0.705177E+00  0.231E+00    0.37       1.0  T
   3   -102.7040037 -0.705746E+00  0.117E+00    0.27       1.0  T
   4   -102.6428828  0.611208E-01  0.115E+00    0.15       1.0  T
   5   -102.8131670 -0.170284E+00  0.519E-01    0.08       1.0  T
   6   -102.8258696 -0.127026E-01  0.258E-01    0.05       1.0  T
   7   -102.8233696  0.249997E-02  0.235E-01    0.07       1.0  T
   8   -102.8271349 -0.376529E-02  0.145E-01    0.04       1.0  T
   9   -102.8289270 -0.179207E-02  0.950E-02    0.06       1.0  T
  10   -102.8294165 -0.489527E-03  0.482E-02    0.06       1.0  T
  11   -102.8296402 -0.223669E-03  0.202E-02    0.05       1.0  T
  12   -102.8296387  0.146054E-05  0.224E-02    0.05       1.0  T
  13   -102.8296783 -0.395242E-04  0.330E-03    0.05       3.8  T
  14   -102.8296767  0.158268E-05  0.464E-03    0.05       2.7  T
  15   -102.8296788 -0.218043E-05  0.155E-03    0.05       8.0  T
  16   -102.8296791 -0.287935E-06  0.294E-04    0.05      42.4  T
  17   -102.8296791  0.548413E-07  0.788E-04    0.05      15.9  T
     SCC iter.                  ...        0 min,  0.179 sec
     gradient                   ...        0 min,  0.016 sec
 * total energy  :  -101.5000602 Eh     change    :  -0.4319636E-01 Eh
   gradient norm :     0.2764280 Eh/a0  converged?    E=F G=F D=F
   time step     :     0.4428903 fs     power     :   0.7319526E-06
   step length   :     0.5348113 a0     speed     :   0.2920919E-01

........................................................................
.............................. CYCLE   12 ..............................
........................................................................

 iter      E             dE          RMSdq      gap      omega  full diag
   1   -102.7274286 -0.102727E+03  0.133E+00    0.27       0.0  T
   2   -102.1527869  0.574642E+00  0.242E+00    0.40       1.0  T
   3   -102.7603769 -0.607590E+00  0.835E-01    0.07       1.0  T
   4   -102.7291329  0.312440E-01  0.883E-01    0.08       1.0  T
   5   -102.7833767 -0.542438E-01  0.777E-01    0.17       1.0  T
   6   -102.8196617 -0.362850E-01  0.475E-01    0.06       1.0  T
   7   -102.8271135 -0.745178E-02  0.381E-01    0.07       1.0  T
   8   -102.8381643 -0.110508E-01  0.186E-01    0.01       1.0  T
   9   -102.8398692 -0.170490E-02  0.101E-01    0.02       1.0  T
  10   -102.8401394 -0.270169E-03  0.758E-02    0.02       1.0  T
  11   -102.8405148 -0.375380E-03  0.405E-02    0.03       1.0  T
  12   -102.8406676 -0.152802E-03  0.757E-03    0.03       1.7  T
  13   -102.8406705 -0.288339E-05  0.463E-03    0.03       2.7  T
  14   -102.8406719 -0.146137E-05  0.363E-03    0.03       3.4  T
  15   -102.8406724 -0.458609E-06  0.238E-03    0.03       5.3  T
  16   -102.8406728 -0.364367E-06  0.836E-04    0.03      15.0  T
  17   -102.8406728 -0.863748E-07  0.203E-04    0.03      61.7  T
     SCC iter.                  ...        0 min,  0.195 sec
     gradient                   ...        0 min,  0.015 sec
 * total energy  :  -101.5402189 Eh     change    :  -0.4015865E-01 Eh
   gradient norm :     0.2755644 Eh/a0  converged?    E=F G=F D=F
   time step     :     0.4871793 fs     power     :   0.6619647E-06
   step length   :     0.5641306 a0     speed     :   0.2800954E-01

........................................................................
.............................. CYCLE   13 ..............................
........................................................................

 iter      E             dE          RMSdq      gap      omega  full diag
   1   -102.7703856 -0.102770E+03  0.117E+00    0.26       0.0  T
   2   -102.2368246  0.533561E+00  0.242E+00    0.36       1.0  T
   3   -102.7068059 -0.469981E+00  0.119E+00    0.29       1.0  T
   4   -102.7681952 -0.613893E-01  0.971E-01    0.17       1.0  T
   5   -102.8360586 -0.678634E-01  0.549E-01    0.13       1.0  T
   6   -102.8482059 -0.121473E-01  0.381E-01    0.11       1.0  T
   7   -102.8577988 -0.959283E-02  0.173E-01    0.08       1.0  T
   8   -102.8596232 -0.182445E-02  0.920E-02    0.08       1.0  T
   9   -102.8603624 -0.739167E-03  0.369E-02    0.08       1.0  T
  10   -102.8604372 -0.748356E-04  0.218E-02    0.08       1.0  T
  11   -102.8604671 -0.298309E-04  0.824E-03    0.08       1.5  T
  12   -102.8604693 -0.224382E-05  0.599E-03    0.08       2.1  T
  13   -102.8604716 -0.231169E-05  0.359E-03    0.08       3.5  T
  14   -102.8604728 -0.123569E-05  0.132E-03    0.08       9.4  T
  15   -102.8604730 -0.114836E-06  0.729E-04    0.08      17.1  T
  16   -102.8604730 -0.344368E-07  0.292E-04    0.08      42.8  T
     SCC iter.                  ...        0 min,  0.175 sec
     gradient                   ...        0 min,  0.016 sec
 * total energy  :  -101.5821974 Eh     change    :  -0.4197856E-01 Eh
   gradient norm :     0.2465440 Eh/a0  converged?    E=F G=F D=F
   time step     :     0.5358972 fs     power     :   0.5611822E-06
   step length   :     0.5977474 a0     speed     :   0.2698058E-01

........................................................................
.............................. CYCLE   14 ..............................
........................................................................

 iter      E             dE          RMSdq      gap      omega  full diag
   1   -102.7965007 -0.102797E+03  0.110E+00    0.27       0.0  T
   2   -102.3805386  0.415962E+00  0.224E+00    0.11       1.0  T
   3   -102.8100549 -0.429516E+00  0.833E-01    0.16       1.0  T
   4   -102.7925728  0.174821E-01  0.966E-01    0.21       1.0  T
   5   -102.8596702 -0.670974E-01  0.502E-01    0.11       1.0  T
   6   -102.8692748 -0.960462E-02  0.405E-01    0.16       1.0  T
   7   -102.8817165 -0.124417E-01  0.188E-01    0.14       1.0  T
   8   -102.8832722 -0.155575E-02  0.128E-01    0.10       1.0  T
   9   -102.8840600 -0.787811E-03  0.757E-02    0.10       1.0  T
  10   -102.8845179 -0.457837E-03  0.288E-02    0.11       1.0  T
  11   -102.8845299 -0.120401E-04  0.227E-02    0.10       1.0  T
  12   -102.8845765 -0.465617E-04  0.709E-03    0.11       1.8  T
  13   -102.8845815 -0.505860E-05  0.254E-03    0.11       4.9  T
  14   -102.8845818 -0.282416E-06  0.110E-03    0.11      11.3  T
  15   -102.8845818 -0.137267E-08  0.104E-03    0.11      12.0  T
  16   -102.8845819 -0.984094E-07  0.607E-04    0.11      20.6  T
  17   -102.8845819 -0.284713E-07  0.162E-04    0.11      77.3  T
     SCC iter.                  ...        0 min,  0.213 sec
     gradient                   ...        0 min,  0.015 sec
 * total energy  :  -101.6138157 Eh     change    :  -0.3161828E-01 Eh
   gradient norm :     0.2325988 Eh/a0  converged?    E=F G=F D=F
   time step     :     0.5894869 fs     power     :   0.1023160E-06
   step length   :     0.6340296 a0     speed     :   0.2601660E-01

........................................................................
.............................. CYCLE   15 ..............................
........................................................................

 iter      E             dE          RMSdq      gap      omega  full diag
   1   -102.8119309 -0.102812E+03  0.105E+00    0.25       0.0  T
   2   -102.3872770  0.424654E+00  0.230E+00    0.12       1.0  T
   3   -102.8666503 -0.479373E+00  0.600E-01    0.10       1.0  T
   4   -102.8447461  0.219042E-01  0.741E-01    0.19       1.0  T
   5   -102.8737600 -0.290139E-01  0.473E-01    0.10       1.0  T
   6   -102.8817897 -0.802973E-02  0.371E-01    0.11       1.0  T
   7   -102.8903504 -0.856069E-02  0.263E-01    0.15       1.0  T
   8   -102.8950390 -0.468852E-02  0.124E-01    0.11       1.0  T
   9   -102.8963546 -0.131562E-02  0.495E-02    0.11       1.0  T
  10   -102.8964287 -0.741678E-04  0.301E-02    0.11       1.0  T
  11   -102.8964989 -0.701113E-04  0.121E-02    0.11       1.0  T
  12   -102.8965092 -0.103812E-04  0.782E-03    0.11       1.6  T
  13   -102.8965118 -0.257495E-05  0.532E-03    0.11       2.4  T
  14   -102.8965131 -0.132379E-05  0.266E-03    0.11       4.7  T
  15   -102.8965134 -0.318314E-06  0.149E-03    0.11       8.4  T
  16   -102.8965137 -0.204531E-06  0.801E-04    0.11      15.6  T
  17   -102.8965137 -0.396603E-07  0.385E-04    0.11      32.5  T
     SCC iter.                  ...        0 min,  0.209 sec
     gradient                   ...        0 min,  0.016 sec
 * total energy  :  -101.6259904 Eh     change    :  -0.1217468E-01 Eh
   gradient norm :     0.2913871 Eh/a0  converged?    E=F G=F D=F
   time step     :     0.6484356 fs     power     :  -0.3865573E-06
   step length   :     0.6571336 a0     speed     :   0.2451331E-01

........................................................................
.............................. CYCLE   16 ..............................
........................................................................
 * reset velocities

 iter      E             dE          RMSdq      gap      omega  full diag
   1   -102.8959980 -0.102896E+03  0.156E-01    0.09       0.0  T
   2   -102.8527803  0.432176E-01  0.676E-01    0.22       1.0  T
   3   -102.8976579 -0.448776E-01  0.837E-02    0.11       1.0  T
   4   -102.8973727  0.285291E-03  0.954E-02    0.11       1.0  T
   5   -102.8981045 -0.731822E-03  0.335E-02    0.11       1.0  T
   6   -102.8981343 -0.297873E-04  0.243E-02    0.11       1.0  T
   7   -102.8981250  0.931330E-05  0.252E-02    0.11       1.0  T
   8   -102.8981714 -0.464716E-04  0.163E-02    0.11       1.0  T
   9   -102.8981933 -0.218496E-04  0.719E-03    0.11       1.7  T
  10   -102.8981978 -0.457569E-05  0.270E-03    0.11       4.6  T
  11   -102.8981982 -0.372233E-06  0.182E-03    0.11       6.9  T
  12   -102.8981984 -0.211573E-06  0.661E-04    0.11      18.9  T
  13   -102.8981985 -0.287424E-07  0.174E-04    0.11      72.0  T
     SCC iter.                  ...        0 min,  0.149 sec
     gradient                   ...        0 min,  0.018 sec
 * total energy  :  -101.6340471 Eh     change    :  -0.8056687E-02 Eh
   gradient norm :     0.2704526 Eh/a0  converged?    E=F G=F D=F
   time step     :     0.3242178 fs     power     :   0.3172136E-06
   step length   :     0.0287180 a0     speed     :   0.2142555E-02

........................................................................
.............................. CYCLE   17 ..............................
........................................................................

 iter      E             dE          RMSdq      gap      omega  full diag
   1   -102.8946990 -0.102895E+03  0.279E-01    0.08       0.0  T
   2   -102.7949370  0.997620E-01  0.103E+00    0.25       1.0  T
   3   -102.8990126 -0.104076E+00  0.185E-01    0.12       1.0  T
   4   -102.8991990 -0.186389E-03  0.169E-01    0.12       1.0  T
   5   -102.9014857 -0.228671E-02  0.617E-02    0.11       1.0  T
   6   -102.9015335 -0.478230E-04  0.458E-02    0.11       1.0  T
   7   -102.9014979  0.355800E-04  0.484E-02    0.11       1.0  T
   8   -102.9016604 -0.162464E-03  0.316E-02    0.11       1.0  T
   9   -102.9017318 -0.714192E-04  0.158E-02    0.11       1.0  T
  10   -102.9017563 -0.244562E-04  0.577E-03    0.11       2.2  T
  11   -102.9017576 -0.135780E-05  0.402E-03    0.11       3.1  T
  12   -102.9017586 -0.100496E-05  0.151E-03    0.11       8.3  T
  13   -102.9017588 -0.144838E-06  0.468E-04    0.11      26.7  T
  14   -102.9017588 -0.193326E-07  0.153E-04    0.11      81.8  T
     SCC iter.                  ...        0 min,  0.152 sec
     gradient                   ...        0 min,  0.015 sec
 * total energy  :  -101.6479835 Eh     change    :  -0.1393644E-01 Eh
   gradient norm :     0.2369672 Eh/a0  converged?    E=F G=F D=F
   time step     :     0.3242178 fs     power     :   0.5296828E-06
   step length   :     0.0553438 a0     speed     :   0.4129024E-02

........................................................................
.............................. CYCLE   18 ..............................
........................................................................

 iter      E             dE          RMSdq      gap      omega  full diag
   1   -102.8969247 -0.102897E+03  0.345E-01    0.07       0.0  T
   2   -102.7660567  0.130868E+00  0.117E+00    0.25       1.0  T
   3   -102.9039085 -0.137852E+00  0.216E-01    0.13       1.0  T
   4   -102.9040861 -0.177515E-03  0.198E-01    0.12       1.0  T
   5   -102.9071493 -0.306329E-02  0.812E-02    0.12       1.0  T
   6   -102.9072748 -0.125502E-03  0.557E-02    0.11       1.0  T
   7   -102.9069383  0.336546E-03  0.725E-02    0.12       1.0  T
   8   -102.9074667 -0.528370E-03  0.367E-02    0.12       1.0  T
   9   -102.9075538 -0.871803E-04  0.200E-02    0.11       1.0  T
  10   -102.9075946 -0.407351E-04  0.687E-03    0.11       1.8  T
  11   -102.9075966 -0.205667E-05  0.474E-03    0.11       2.6  T
  12   -102.9075980 -0.134489E-05  0.191E-03    0.11       6.5  T
  13   -102.9075982 -0.238805E-06  0.517E-04    0.11      24.2  T
  14   -102.9075982 -0.202748E-07  0.193E-04    0.11      64.8  T
     SCC iter.                  ...        0 min,  0.160 sec
     gradient                   ...        0 min,  0.017 sec
 * total energy  :  -101.6647831 Eh     change    :  -0.1679959E-01 Eh
   gradient norm :     0.2025377 Eh/a0  converged?    E=F G=F D=F
   time step     :     0.3242178 fs     power     :   0.6205874E-06
   step length   :     0.0784571 a0     speed     :   0.5853433E-02

........................................................................
.............................. CYCLE   19 ..............................
........................................................................

 iter      E             dE          RMSdq      gap      omega  full diag
   1   -102.9053062 -0.102905E+03  0.353E-01    0.08       0.0  T
   2   -102.7719119  0.133394E+00  0.118E+00    0.25       1.0  T
   3   -102.9138986 -0.141987E+00  0.178E-01    0.13       1.0  T
   4   -102.9126621  0.123653E-02  0.199E-01    0.13       1.0  T
   5   -102.9155828 -0.292073E-02  0.960E-02    0.12       1.0  T
   6   -102.9161073 -0.524453E-03  0.442E-02    0.12       1.0  T
   7   -102.9155454  0.561827E-03  0.709E-02    0.13       1.0  T
   8   -102.9161863 -0.640853E-03  0.270E-02    0.12       1.0  T
   9   -102.9162311 -0.448303E-04  0.149E-02    0.12       1.0  T
  10   -102.9162519 -0.207618E-04  0.565E-03    0.12       2.2  T
  11   -102.9162536 -0.168248E-05  0.382E-03    0.12       3.3  T
  12   -102.9162545 -0.919232E-06  0.156E-03    0.12       8.0  T
  13   -102.9162546 -0.127525E-06  0.554E-04    0.12      22.6  T
  14   -102.9162546 -0.303181E-07  0.165E-04    0.12      75.7  T
     SCC iter.                  ...        0 min,  0.151 sec
     gradient                   ...        0 min,  0.014 sec
 * total energy  :  -101.6820255 Eh     change    :  -0.1724237E-01 Eh
   gradient norm :     0.1762587 Eh/a0  converged?    E=F G=F D=F
   time step     :     0.3242178 fs     power     :   0.6248916E-06
   step length   :     0.0975008 a0     speed     :   0.7274216E-02

........................................................................
.............................. CYCLE   20 ..............................
........................................................................

 iter      E             dE          RMSdq      gap      omega  full diag
   1   -102.9196816 -0.102920E+03  0.319E-01    0.09       0.0  T
   2   -102.8074500  0.112232E+00  0.108E+00    0.26       1.0  T
   3   -102.9275116 -0.120062E+00  0.108E-01    0.13       1.0  T
   4   -102.9265292  0.982412E-03  0.139E-01    0.13       1.0  T
   5   -102.9263666  0.162583E-03  0.144E-01    0.11       1.0  T
   6   -102.9281223 -0.175563E-02  0.374E-02    0.13       1.0  T
   7   -102.9280860  0.362277E-04  0.352E-02    0.12       1.0  T
   8   -102.9280380  0.480444E-04  0.369E-02    0.13       1.0  T
   9   -102.9282155 -0.177514E-03  0.630E-03    0.12       2.0  T
  10   -102.9282207 -0.523732E-05  0.269E-03    0.12       4.7  T
  11   -102.9282210 -0.255079E-06  0.173E-03    0.12       7.2  T
  12   -102.9282211 -0.133282E-06  0.108E-03    0.12      11.6  T
  13   -102.9282212 -0.781915E-07  0.401E-04    0.12      31.2  T
  14   -102.9282212 -0.159013E-07  0.185E-04    0.12      67.6  T
     SCC iter.                  ...        0 min,  0.155 sec
     gradient                   ...        0 min,  0.016 sec
 * total energy  :  -101.6985199 Eh     change    :  -0.1649439E-01 Eh
   gradient norm :     0.1617335 Eh/a0  converged?    E=F G=F D=F
   time step     :     0.3242178 fs     power     :   0.5939636E-06
   step length   :     0.1125371 a0     speed     :   0.8396028E-02
 * RMSD in coord.:     0.6442127 a0     energy gain  -0.1343318E+01 Eh

........................................................................
.............................. CYCLE   21 ..............................
........................................................................

 iter      E             dE          RMSdq      gap      omega  full diag
   1   -102.9365104 -0.102937E+03  0.203E-01    0.11       0.0  T
   2   -102.8815119  0.549985E-01  0.752E-01    0.24       1.0  T
   3   -102.9388133 -0.573014E-01  0.102E-01    0.13       1.0  T
   4   -102.9371486  0.166472E-02  0.179E-01    0.12       1.0  T
   5   -102.9395225 -0.237399E-02  0.504E-02    0.13       1.0  T
   6   -102.9389008  0.621742E-03  0.788E-02    0.11       1.0  T
   7   -102.9393592 -0.458445E-03  0.519E-02    0.14       1.0  T
   8   -102.9396842 -0.324935E-03  0.157E-02    0.13       1.0  T
   9   -102.9397002 -0.160129E-04  0.972E-03    0.13       1.3  T
  10   -102.9397094 -0.924744E-05  0.191E-03    0.13       6.6  T
  11   -102.9397095 -0.609845E-07  0.165E-03    0.13       7.6  T
  12   -102.9397097 -0.187985E-06  0.558E-04    0.13      22.4  T
  13   -102.9397097 -0.175505E-07  0.192E-04    0.13      65.0  T
     SCC iter.                  ...        0 min,  0.198 sec
     gradient                   ...        0 min,  0.016 sec
 * total energy  :  -101.7104884 Eh     change    :  -0.1196855E-01 Eh
   gradient norm :     0.1574256 Eh/a0  converged?    E=F G=F D=F
   time step     :     0.2500000 fs     power     :   0.5807047E-06
   step length   :     0.0932202 a0     speed     :   0.9019556E-02

........................................................................
.............................. CYCLE   22 ..............................
........................................................................

 iter      E             dE          RMSdq      gap      omega  full diag
   1   -102.9517491 -0.102952E+03  0.162E-01    0.11       0.0  T
   2   -102.9182163  0.335328E-01  0.588E-01    0.23       1.0  T
   3   -102.9520637 -0.338474E-01  0.127E-01    0.13       1.0  T
   4   -102.9511361  0.927668E-03  0.168E-01    0.11       1.0  T
   5   -102.9528318 -0.169570E-02  0.844E-02    0.14       1.0  T
   6   -102.9531587 -0.326925E-03  0.474E-02    0.12       1.0  T
   7   -102.9532350 -0.762919E-04  0.444E-02    0.14       1.0  T
   8   -102.9534619 -0.226871E-03  0.183E-02    0.13       1.0  T
   9   -102.9534843 -0.224155E-04  0.816E-03    0.13       1.5  T
  10   -102.9534913 -0.698640E-05  0.231E-03    0.13       5.4  T
  11   -102.9534914 -0.106158E-06  0.169E-03    0.13       7.4  T
  12   -102.9534916 -0.227638E-06  0.481E-04    0.13      26.0  T
  13   -102.9534916 -0.140371E-07  0.142E-04    0.13      88.0  T
     SCC iter.                  ...        0 min,  0.382 sec
     gradient                   ...        0 min,  0.029 sec
 * total energy  :  -101.7223910 Eh     change    :  -0.1190262E-01 Eh
   gradient norm :     0.1561010 Eh/a0  converged?    E=F G=F D=F
   time step     :     0.2500000 fs     power     :   0.5860683E-06
   step length   :     0.0985039 a0     speed     :   0.9530782E-02

........................................................................
.............................. CYCLE   23 ..............................
........................................................................

 iter      E             dE          RMSdq      gap      omega  full diag
   1   -102.9685176 -0.102969E+03  0.129E-01    0.12       0.0  T
   2   -102.9525570  0.159607E-01  0.412E-01    0.20       1.0  T
   3   -102.9675570 -0.150001E-01  0.141E-01    0.14       1.0  T
   4   -102.9664320  0.112503E-02  0.165E-01    0.11       1.0  T
   5   -102.9679782 -0.154618E-02  0.121E-01    0.16       1.0  T
   6   -102.9692594 -0.128129E-02  0.283E-02    0.13       1.0  T
   7   -102.9691334  0.126017E-03  0.401E-02    0.14       1.0  T
   8   -102.9693108 -0.177373E-03  0.166E-02    0.14       1.0  T
   9   -102.9693325 -0.217088E-04  0.547E-03    0.13       2.3  T
  10   -102.9693350 -0.244203E-05  0.265E-03    0.13       4.7  T
  11   -102.9693353 -0.315797E-06  0.157E-03    0.13       8.0  T
  12   -102.9693355 -0.192967E-06  0.659E-04    0.13      19.0  T
  13   -102.9693355 -0.336845E-07  0.218E-04    0.13      57.4  T
     SCC iter.                  ...        0 min,  0.371 sec
     gradient                   ...        0 min,  0.018 sec
 * total energy  :  -101.7345804 Eh     change    :  -0.1218940E-01 Eh
   gradient norm :     0.1552130 Eh/a0  converged?    E=F G=F D=F
   time step     :     0.2500000 fs     power     :   0.6089076E-06
   step length   :     0.1031464 a0     speed     :   0.9979965E-02

........................................................................
.............................. CYCLE   24 ..............................
........................................................................

 iter      E             dE          RMSdq      gap      omega  full diag
   1   -102.9863874 -0.102986E+03  0.117E-01    0.13       0.0  T
   2   -102.9805272  0.586019E-02  0.266E-01    0.17       1.0  T
   3   -102.9849069 -0.437970E-02  0.150E-01    0.14       1.0  T
   4   -102.9851376 -0.230773E-03  0.124E-01    0.13       1.0  T
   5   -102.9854319 -0.294229E-03  0.117E-01    0.16       1.0  T
   6   -102.9868338 -0.140193E-02  0.305E-02    0.14       1.0  T
   7   -102.9867231  0.110740E-03  0.475E-02    0.15       1.0  T
   8   -102.9869064 -0.183347E-03  0.125E-02    0.14       1.0  T
   9   -102.9869203 -0.138656E-04  0.575E-03    0.14       2.2  T
  10   -102.9869228 -0.253371E-05  0.287E-03    0.14       4.4  T
  11   -102.9869232 -0.418040E-06  0.155E-03    0.14       8.0  T
  12   -102.9869234 -0.202781E-06  0.528E-04    0.14      23.7  T
  13   -102.9869235 -0.218122E-07  0.160E-04    0.14      78.0  T
     SCC iter.                  ...        0 min,  0.287 sec
     gradient                   ...        0 min,  0.017 sec
 * total energy  :  -101.7472998 Eh     change    :  -0.1271939E-01 Eh
   gradient norm :     0.1529463 Eh/a0  converged?    E=F G=F D=F
   time step     :     0.2500000 fs     power     :   0.6419104E-06
   step length   :     0.1075954 a0     speed     :   0.1041043E-01

........................................................................
.............................. CYCLE   25 ..............................
........................................................................

 iter      E             dE          RMSdq      gap      omega  full diag
   1   -103.0049400 -0.103005E+03  0.138E-01    0.15       0.0  T
   2   -102.9957271  0.921287E-02  0.328E-01    0.14       1.0  T
   3   -103.0051566 -0.942948E-02  0.937E-02    0.15       1.0  T
   4   -103.0036411  0.151552E-02  0.156E-01    0.14       1.0  T
   5   -103.0049626 -0.132151E-02  0.104E-01    0.14       1.0  T
   6   -103.0058881 -0.925585E-03  0.190E-02    0.15       1.0  T
   7   -103.0058462  0.419701E-04  0.220E-02    0.14       1.0  T
   8   -103.0058270  0.191801E-04  0.267E-02    0.15       1.0  T
   9   -103.0059076 -0.806486E-04  0.459E-03    0.14       2.7  T
  10   -103.0059093 -0.163169E-05  0.264E-03    0.14       4.7  T
  11   -103.0059096 -0.362415E-06  0.144E-03    0.14       8.7  T
  12   -103.0059098 -0.176027E-06  0.449E-04    0.14      27.8  T
  13   -103.0059098 -0.154630E-07  0.161E-04    0.14      77.7  T
     SCC iter.                  ...        0 min,  0.124 sec
     gradient                   ...        0 min,  0.016 sec
 * total energy  :  -101.7606143 Eh     change    :  -0.1331444E-01 Eh
   gradient norm :     0.1483527 Eh/a0  converged?    E=F G=F D=F
   time step     :     0.2500000 fs     power     :   0.6750848E-06
   step length   :     0.1121301 a0     speed     :   0.1084919E-01

........................................................................
.............................. CYCLE   26 ..............................
........................................................................

 iter      E             dE          RMSdq      gap      omega  full diag
   1   -103.0252904 -0.103025E+03  0.207E-01    0.16       0.0  T
   2   -102.9840524  0.412380E-01  0.664E-01    0.11       1.0  T
   3   -103.0211376 -0.370852E-01  0.277E-01    0.16       1.0  T
   4   -103.0273941 -0.625649E-02  0.981E-02    0.15       1.0  T
   5   -103.0272455  0.148592E-03  0.100E-01    0.15       1.0  T
   6   -103.0280411 -0.795644E-03  0.270E-02    0.15       1.0  T
   7   -103.0279961  0.450636E-04  0.264E-02    0.14       1.0  T
   8   -103.0279486  0.475069E-04  0.354E-02    0.16       1.0  T
   9   -103.0280836 -0.135053E-03  0.766E-03    0.15       1.6  T
  10   -103.0280880 -0.437247E-05  0.414E-03    0.15       3.0  T
  11   -103.0280887 -0.753119E-06  0.246E-03    0.15       5.1  T
  12   -103.0280893 -0.535009E-06  0.781E-04    0.15      16.0  T
  13   -103.0280893 -0.500162E-07  0.272E-04    0.15      46.0  T
     SCC iter.                  ...        0 min,  0.123 sec
     gradient                   ...        0 min,  0.015 sec
 * total energy  :  -101.7758444 Eh     change    :  -0.1523016E-01 Eh
   gradient norm :     0.1404781 Eh/a0  converged?    E=F G=F D=F
   time step     :     0.2750000 fs     power     :   0.6979132E-06
   step length   :     0.1293235 a0     speed     :   0.1137523E-01

........................................................................
.............................. CYCLE   27 ..............................
........................................................................

 iter      E             dE          RMSdq      gap      omega  full diag
   1   -103.0465455 -0.103047E+03  0.310E-01    0.18       0.0  T
   2   -102.9314998  0.115046E+00  0.111E+00    0.11       1.0  T
   3   -103.0289810 -0.974813E-01  0.530E-01    0.17       1.0  T
   4   -103.0531272 -0.241462E-01  0.866E-02    0.17       1.0  T
   5   -103.0527791  0.348120E-03  0.900E-02    0.15       1.0  T
   6   -103.0531894 -0.410343E-03  0.653E-02    0.18       1.0  T
   7   -103.0530111  0.178370E-03  0.611E-02    0.15       1.0  T
   8   -103.0533288 -0.317692E-03  0.449E-02    0.17       1.0  T
   9   -103.0535210 -0.192290E-03  0.110E-02    0.16       1.1  T
  10   -103.0535306 -0.956513E-05  0.478E-03    0.16       2.6  T
  11   -103.0535313 -0.691560E-06  0.318E-03    0.16       3.9  T
  12   -103.0535321 -0.821076E-06  0.110E-03    0.16      11.4  T
  13   -103.0535322 -0.109012E-06  0.470E-04    0.16      26.6  T
  14   -103.0535323 -0.174758E-07  0.187E-04    0.16      66.8  T
     SCC iter.                  ...        0 min,  0.133 sec
     gradient                   ...        0 min,  0.017 sec
 * total energy  :  -101.7928068 Eh     change    :  -0.1696236E-01 Eh
   gradient norm :     0.1296844 Eh/a0  converged?    E=F G=F D=F
   time step     :     0.3025000 fs     power     :   0.6971251E-06
   step length   :     0.1498174 a0     speed     :   0.1197986E-01

........................................................................
.............................. CYCLE   28 ..............................
........................................................................

 iter      E             dE          RMSdq      gap      omega  full diag
   1   -103.0679053 -0.103068E+03  0.437E-01    0.20       0.0  T
   2   -102.8626205  0.205285E+00  0.150E+00    0.12       1.0  T
   3   -103.0304065 -0.167786E+00  0.776E-01    0.18       1.0  T
   4   -103.0818343 -0.514278E-01  0.979E-02    0.18       1.0  T
   5   -103.0817509  0.833436E-04  0.799E-02    0.17       1.0  T
   6   -103.0816993  0.515970E-04  0.792E-02    0.20       1.0  T
   7   -103.0818224 -0.123050E-03  0.558E-02    0.16       1.0  T
   8   -103.0819051 -0.827082E-04  0.582E-02    0.18       1.0  T
   9   -103.0822334 -0.328355E-03  0.128E-02    0.17       1.0  T
  10   -103.0822419 -0.850521E-05  0.825E-03    0.17       1.5  T
  11   -103.0822461 -0.419396E-05  0.428E-03    0.17       2.9  T
  12   -103.0822470 -0.905360E-06  0.175E-03    0.17       7.1  T
  13   -103.0822473 -0.283145E-06  0.964E-04    0.17      13.0  T
  14   -103.0822474 -0.580569E-07  0.410E-04    0.17      30.5  T
     SCC iter.                  ...        0 min,  0.363 sec
     gradient                   ...        0 min,  0.018 sec
 * total energy  :  -101.8109406 Eh     change    :  -0.1813385E-01 Eh
   gradient norm :     0.1183349 Eh/a0  converged?    E=F G=F D=F
   time step     :     0.3327500 fs     power     :   0.6622682E-06
   step length   :     0.1737082 a0     speed     :   0.1262750E-01

........................................................................
.............................. CYCLE   29 ..............................
........................................................................

 iter      E             dE          RMSdq      gap      omega  full diag
   1   -103.0913418 -0.103091E+03  0.555E-01    0.22       0.0  T
   2   -102.8158771  0.275465E+00  0.178E+00    0.12       1.0  T
   3   -103.0453156 -0.229438E+00  0.892E-01    0.20       1.0  T
   4   -103.1134293 -0.681137E-01  0.131E-01    0.20       1.0  T
   5   -103.1130344  0.394888E-03  0.131E-01    0.20       1.0  T
   6   -103.1114997  0.153467E-02  0.138E-01    0.16       1.0  T
   7   -103.1132345 -0.173475E-02  0.999E-02    0.21       1.0  T
   8   -103.1139887 -0.754171E-03  0.480E-02    0.20       1.0  T
   9   -103.1141088 -0.120121E-03  0.359E-02    0.19       1.0  T
  10   -103.1141961 -0.873444E-04  0.135E-02    0.19       1.0  T
  11   -103.1142089 -0.127580E-04  0.606E-03    0.19       2.1  T
  12   -103.1142112 -0.226921E-05  0.207E-03    0.19       6.0  T
  13   -103.1142114 -0.216528E-06  0.176E-03    0.19       7.1  T
  14   -103.1142116 -0.215357E-06  0.595E-04    0.19      21.0  T
  15   -103.1142116 -0.187535E-07  0.187E-04    0.19      66.7  T
     SCC iter.                  ...        0 min,  0.239 sec
     gradient                   ...        0 min,  0.016 sec
 * total energy  :  -101.8293896 Eh     change    :  -0.1844897E-01 Eh
   gradient norm :     0.1112841 Eh/a0  converged?    E=F G=F D=F
   time step     :     0.3660250 fs     power     :   0.5924235E-06
   step length   :     0.2004954 a0     speed     :   0.1324978E-01

........................................................................
.............................. CYCLE   30 ..............................
........................................................................

 iter      E             dE          RMSdq      gap      omega  full diag
   1   -103.1229533 -0.103123E+03  0.615E-01    0.24       0.0  T
   2   -102.8120476  0.310906E+00  0.195E+00    0.10       1.0  T
   3   -103.1005193 -0.288472E+00  0.743E-01    0.22       1.0  T
   4   -103.1467352 -0.462160E-01  0.203E-01    0.21       1.0  T
   5   -103.1446525  0.208274E-02  0.239E-01    0.25       1.0  T
   6   -103.1469512 -0.229873E-02  0.138E-01    0.18       1.0  T
   7   -103.1477473 -0.796065E-03  0.146E-01    0.23       1.0  T
   8   -103.1489692 -0.122188E-02  0.649E-02    0.22       1.0  T
   9   -103.1492756 -0.306426E-03  0.348E-02    0.20       1.0  T
  10   -103.1493253 -0.496853E-04  0.146E-02    0.20       1.0  T
  11   -103.1493387 -0.134222E-04  0.479E-03    0.20       2.6  T
  12   -103.1493393 -0.602189E-06  0.216E-03    0.20       5.8  T
  13   -103.1493396 -0.331048E-06  0.143E-03    0.20       8.8  T
  14   -103.1493397 -0.878861E-07  0.450E-04    0.20      27.8  T
  15   -103.1493397 -0.172080E-07  0.135E-04    0.20      92.4  T
     SCC iter.                  ...        0 min,  0.326 sec
     gradient                   ...        0 min,  0.017 sec
 * total energy  :  -101.8473453 Eh     change    :  -0.1795573E-01 Eh
   gradient norm :     0.1122116 Eh/a0  converged?    E=F G=F D=F
   time step     :     0.4026275 fs     power     :   0.5008704E-06
   step length   :     0.2287395 a0     speed     :   0.1374209E-01

........................................................................
.............................. CYCLE   31 ..............................
........................................................................

 iter      E             dE          RMSdq      gap      omega  full diag
   1   -103.1656289 -0.103166E+03  0.588E-01    0.25       0.0  T
   2   -102.8347048  0.330924E+00  0.210E+00    0.05       1.0  T
   3   -103.1748449 -0.340140E+00  0.399E-01    0.31       1.0  T
   4   -103.1756672 -0.822308E-03  0.352E-01    0.21       1.0  T
   5   -103.1816585 -0.599122E-02  0.256E-01    0.27       1.0  T
   6   -103.1837385 -0.208000E-02  0.197E-01    0.23       1.0  T
   7   -103.1864835 -0.274503E-02  0.113E-01    0.23       1.0  T
   8   -103.1868491 -0.365652E-03  0.710E-02    0.23       1.0  T
   9   -103.1871052 -0.256007E-03  0.367E-02    0.21       1.0  T
  10   -103.1871648 -0.596098E-04  0.199E-02    0.22       1.0  T
  11   -103.1871777 -0.129712E-04  0.933E-03    0.21       1.3  T
  12   -103.1871875 -0.978755E-05  0.261E-03    0.21       4.8  T
  13   -103.1871877 -0.153876E-06  0.194E-03    0.21       6.5  T
  14   -103.1871879 -0.234266E-06  0.844E-04    0.21      14.8  T
  15   -103.1871880 -0.540576E-07  0.192E-04    0.21      65.0  T
     SCC iter.                  ...        0 min,  0.380 sec
     gradient                   ...        0 min,  0.021 sec
 * total energy  :  -101.8642479 Eh     change    :  -0.1690262E-01 Eh
   gradient norm :     0.1172240 Eh/a0  converged?    E=F G=F D=F
   time step     :     0.4428903 fs     power     :   0.3965712E-06
   step length   :     0.2565977 a0     speed     :   0.1401431E-01

........................................................................
.............................. CYCLE   32 ..............................
........................................................................

 iter      E             dE          RMSdq      gap      omega  full diag
   1   -103.2138666 -0.103214E+03  0.482E-01    0.25       0.0  T
   2   -102.7905606  0.423306E+00  0.228E+00    0.08       1.0  T
   3   -103.2136071 -0.423047E+00  0.379E-01    0.28       1.0  T
   4   -103.2136888 -0.816299E-04  0.376E-01    0.23       1.0  T
   5   -103.2214901 -0.780130E-02  0.269E-01    0.23       1.0  T
   6   -103.2233251 -0.183504E-02  0.184E-01    0.27       1.0  T
   7   -103.2246912 -0.136609E-02  0.146E-01    0.24       1.0  T
   8   -103.2255965 -0.905328E-03  0.106E-01    0.24       1.0  T
   9   -103.2259189 -0.322383E-03  0.771E-02    0.22       1.0  T
  10   -103.2262215 -0.302542E-03  0.354E-02    0.22       1.0  T
  11   -103.2263075 -0.860717E-04  0.897E-03    0.21       1.4  T
  12   -103.2263122 -0.469256E-05  0.390E-03    0.21       3.2  T
  13   -103.2263127 -0.480910E-06  0.220E-03    0.21       5.7  T
  14   -103.2263132 -0.530826E-06  0.655E-04    0.21      19.1  T
  15   -103.2263133 -0.324284E-07  0.234E-04    0.21      53.5  T
     SCC iter.                  ...        0 min,  0.378 sec
     gradient                   ...        0 min,  0.017 sec
 * total energy  :  -101.8791241 Eh     change    :  -0.1487617E-01 Eh
   gradient norm :     0.1276758 Eh/a0  converged?    E=F G=F D=F
   time step     :     0.4871793 fs     power     :   0.2650543E-06
   step length   :     0.2828369 a0     speed     :   0.1404308E-01

........................................................................
.............................. CYCLE   33 ..............................
........................................................................

 iter      E             dE          RMSdq      gap      omega  full diag
   1   -103.2587234 -0.103259E+03  0.342E-01    0.23       0.0  T
   2   -102.9931909  0.265532E+00  0.167E+00    0.08       1.0  T
   3   -103.2518057 -0.258615E+00  0.368E-01    0.30       1.0  T
   4   -103.2544185 -0.261277E-02  0.336E-01    0.27       1.0  T
   5   -103.2605940 -0.617549E-02  0.222E-01    0.22       1.0  T
   6   -103.2604716  0.122375E-03  0.174E-01    0.27       1.0  T
   7   -103.2625616 -0.209006E-02  0.128E-01    0.24       1.0  T
   8   -103.2633524 -0.790744E-03  0.872E-02    0.22       1.0  T
   9   -103.2635482 -0.195828E-03  0.694E-02    0.22       1.0  T
  10   -103.2638653 -0.317059E-03  0.279E-02    0.21       1.0  T
  11   -103.2639166 -0.513335E-04  0.692E-03    0.19       1.8  T
  12   -103.2639217 -0.513671E-05  0.154E-03    0.20       8.1  T
  13   -103.2639219 -0.124270E-06  0.104E-03    0.20      12.0  T
  14   -103.2639219 -0.320585E-07  0.701E-04    0.20      17.8  T
  15   -103.2639219 -0.408989E-07  0.179E-04    0.20      69.9  T
     SCC iter.                  ...        0 min,  0.356 sec
     gradient                   ...        0 min,  0.021 sec
 * total energy  :  -101.8918345 Eh     change    :  -0.1271036E-01 Eh
   gradient norm :     0.1560983 Eh/a0  converged?    E=F G=F D=F
   time step     :     0.5358972 fs     power     :   0.1785519E-06
   step length   :     0.3053621 a0     speed     :   0.1378316E-01

........................................................................
.............................. CYCLE   34 ..............................
........................................................................

 iter      E             dE          RMSdq      gap      omega  full diag
   1   -103.2932976 -0.103293E+03  0.275E-01    0.20       0.0  T
   2   -103.1858113  0.107486E+00  0.103E+00    0.11       1.0  T
   3   -103.2855338 -0.997225E-01  0.350E-01    0.27       1.0  T
   4   -103.2903070 -0.477313E-02  0.267E-01    0.18       1.0  T
   5   -103.2956426 -0.533568E-02  0.125E-01    0.16       1.0  T
   6   -103.2956153  0.273614E-04  0.104E-01    0.20       1.0  T
   7   -103.2962868 -0.671538E-03  0.800E-02    0.19       1.0  T
   8   -103.2968061 -0.519288E-03  0.157E-02    0.17       1.0  T
   9   -103.2967812  0.248809E-04  0.189E-02    0.18       1.0  T
  10   -103.2968203 -0.391024E-04  0.353E-03    0.18       3.5  T
  11   -103.2968207 -0.383882E-06  0.191E-03    0.18       6.6  T
  12   -103.2968211 -0.368509E-06  0.459E-04    0.18      27.2  T
  13   -103.2968211 -0.959714E-08  0.251E-04    0.18      49.9  T
     SCC iter.                  ...        0 min,  0.326 sec
     gradient                   ...        0 min,  0.017 sec
 * total energy  :  -101.9079162 Eh     change    :  -0.1608173E-01 Eh
   gradient norm :     0.1634375 Eh/a0  converged?    E=F G=F D=F
   time step     :     0.5894869 fs     power     :   0.2734620E-06
   step length   :     0.3274399 a0     speed     :   0.1343608E-01

........................................................................
.............................. CYCLE   35 ..............................
........................................................................

 iter      E             dE          RMSdq      gap      omega  full diag
   1   -103.3180488 -0.103318E+03  0.291E-01    0.19       0.0  T
   2   -103.2225253  0.955235E-01  0.102E+00    0.08       1.0  T
   3   -103.3201436 -0.976183E-01  0.155E-01    0.21       1.0  T
   4   -103.2341070  0.860366E-01  0.793E-01    0.03       1.0  T
   5   -103.3192896 -0.851826E-01  0.179E-01    0.18       1.0  T
   6   -103.3193439 -0.543273E-04  0.150E-01    0.19       1.0  T
   7   -103.3213130 -0.196908E-02  0.676E-02    0.18       1.0  T
   8   -103.3214289 -0.115946E-03  0.519E-02    0.18       1.0  T
   9   -103.3215369 -0.107986E-03  0.397E-02    0.18       1.0  T
  10   -103.3216403 -0.103327E-03  0.258E-02    0.17       1.0  T
  11   -103.3216895 -0.492402E-04  0.924E-03    0.16       1.4  T
  12   -103.3216975 -0.795941E-05  0.256E-03    0.16       4.9  T
  13   -103.3216978 -0.349967E-06  0.161E-03    0.16       7.8  T
  14   -103.3216980 -0.159612E-06  0.656E-04    0.16      19.1  T
  15   -103.3216980 -0.366251E-07  0.274E-04    0.16      45.6  T
     SCC iter.                  ...        0 min,  0.146 sec
     gradient                   ...        0 min,  0.018 sec
 * total energy  :  -101.9304516 Eh     change    :  -0.2253534E-01 Eh
   gradient norm :     0.1412321 Eh/a0  converged?    E=F G=F D=F
   time step     :     0.6484356 fs     power     :   0.3471660E-06
   step length   :     0.3620072 a0     speed     :   0.1350409E-01

........................................................................
.............................. CYCLE   36 ..............................
........................................................................

 iter      E             dE          RMSdq      gap      omega  full diag
   1   -103.3294730 -0.103329E+03  0.370E-01    0.20       0.0  T
   2   -102.8740968  0.455376E+00  0.213E+00    0.12       1.0  T
   3   -103.3319878 -0.457891E+00  0.227E-01    0.23       1.0  T
   4   -103.2930032  0.389846E-01  0.668E-01    0.15       1.0  T
   5   -103.2996944 -0.669118E-02  0.549E-01    0.11       1.0  T
   6   -103.3336415 -0.339471E-01  0.135E-01    0.15       1.0  T
   7   -103.3340285 -0.387007E-03  0.954E-02    0.19       1.0  T
   8   -103.3350287 -0.100025E-02  0.478E-02    0.16       1.0  T
   9   -103.3350922 -0.634974E-04  0.348E-02    0.15       1.0  T
  10   -103.3351105 -0.182214E-04  0.290E-02    0.15       1.0  T
  11   -103.3351602 -0.497698E-04  0.125E-02    0.15       1.0  T
  12   -103.3351699 -0.969729E-05  0.541E-03    0.15       2.3  T
  13   -103.3351710 -0.110379E-05  0.358E-03    0.15       3.5  T
  14   -103.3351719 -0.870200E-06  0.119E-03    0.15      10.5  T
  15   -103.3351720 -0.814826E-07  0.526E-04    0.15      23.8  T
  16   -103.3351720 -0.128520E-07  0.278E-04    0.15      45.0  T
     SCC iter.                  ...        0 min,  0.237 sec
     gradient                   ...        0 min,  0.018 sec
 * total energy  :  -101.9542616 Eh     change    :  -0.2381001E-01 Eh
   gradient norm :     0.1191014 Eh/a0  converged?    E=F G=F D=F
   time step     :     0.7132792 fs     power     :   0.2987562E-06
   step length   :     0.4083166 a0     speed     :   0.1384690E-01

........................................................................
.............................. CYCLE   37 ..............................
........................................................................

 iter      E             dE          RMSdq      gap      omega  full diag
   1   -103.3225791 -0.103323E+03  0.577E-01    0.18       0.0  T
   2   -102.6598300  0.662749E+00  0.240E+00    0.07       1.0  T
   3   -103.3231126 -0.663283E+00  0.492E-01    0.28       1.0  T
   4   -103.0852821  0.237831E+00  0.156E+00    0.22       1.0  T
   5   -103.3027270 -0.217445E+00  0.655E-01    0.17       1.0  T
   6   -103.3257963 -0.230693E-01  0.343E-01    0.08       1.0  T
   7   -103.3381531 -0.123568E-01  0.177E-01    0.16       1.0  T
   8   -103.3377314  0.421700E-03  0.173E-01    0.14       1.0  T
   9   -103.3394087 -0.167729E-02  0.103E-01    0.13       1.0  T
  10   -103.3397158 -0.307137E-03  0.730E-02    0.13       1.0  T
  11   -103.3401702 -0.454353E-03  0.228E-02    0.13       1.0  T
  12   -103.3402166 -0.464473E-04  0.123E-02    0.13       1.0  T
  13   -103.3402265 -0.984352E-05  0.528E-03    0.13       2.4  T
  14   -103.3402287 -0.220269E-05  0.119E-03    0.13      10.5  T
  15   -103.3402288 -0.987771E-07  0.379E-04    0.13      33.0  T
  16   -103.3402288 -0.186280E-08  0.286E-04    0.13      43.8  T
     SCC iter.                  ...        0 min,  0.215 sec
     gradient                   ...        0 min,  0.015 sec
 * total energy  :  -101.9727064 Eh     change    :  -0.1844479E-01 Eh
   gradient norm :     0.1075418 Eh/a0  converged?    E=F G=F D=F
   time step     :     0.7846071 fs     power     :   0.1362875E-06
   step length   :     0.4566466 a0     speed     :   0.1407807E-01

........................................................................
.............................. CYCLE   38 ..............................
........................................................................

 iter      E             dE          RMSdq      gap      omega  full diag
   1   -103.3170628 -0.103317E+03  0.787E-01    0.18       0.0  T
   2   -102.6639123  0.653150E+00  0.238E+00    0.22       1.0  T
   3   -103.1835589 -0.519647E+00  0.121E+00    0.19       1.0  T
   4   -103.1148801  0.686788E-01  0.137E+00    0.21       1.0  T
   5   -103.3246526 -0.209773E+00  0.519E-01    0.20       1.0  T
   6   -103.3339143 -0.926170E-02  0.369E-01    0.14       1.0  T
   7   -103.3389065 -0.499220E-02  0.226E-01    0.16       1.0  T
   8   -103.3413373 -0.243074E-02  0.134E-01    0.14       1.0  T
   9   -103.3424526 -0.111533E-02  0.307E-02    0.12       1.0  T
  10   -103.3425045 -0.519263E-04  0.136E-02    0.12       1.0  T
  11   -103.3425094 -0.485072E-05  0.882E-03    0.12       1.4  T
  12   -103.3425126 -0.320473E-05  0.747E-03    0.12       1.7  T
  13   -103.3425174 -0.478161E-05  0.184E-03    0.12       6.8  T
  14   -103.3425173  0.973826E-07  0.175E-03    0.12       7.1  T
  15   -103.3425176 -0.291812E-06  0.647E-04    0.12      19.3  T
  16   -103.3425176 -0.170449E-07  0.496E-04    0.12      25.2  T
     SCC iter.                  ...        0 min,  0.138 sec
     gradient                   ...        0 min,  0.015 sec
 * total energy  :  -101.9855836 Eh     change    :  -0.1287720E-01 Eh
   gradient norm :     0.1294945 Eh/a0  converged?    E=F G=F D=F
   time step     :     0.8630678 fs     power     :   0.7627644E-07
   step length   :     0.4917865 a0     speed     :   0.1378310E-01

........................................................................
.............................. CYCLE   39 ..............................
........................................................................

 iter      E             dE          RMSdq      gap      omega  full diag
   1   -103.2551501 -0.103255E+03  0.112E+00    0.26       0.0  T
   2   -102.5934233  0.661727E+00  0.272E+00    0.30       1.0  T
   3   -102.5773489  0.160744E-01  0.221E+00    0.15       1.0  T
   4   -103.2831298 -0.705781E+00  0.846E-01    0.25       1.0  T
   5   -103.2933506 -0.102208E-01  0.698E-01    0.10       1.0  T
   6   -103.3283690 -0.350184E-01  0.405E-01    0.17       1.0  T
   7   -103.3341600 -0.579096E-02  0.287E-01    0.15       1.0  T
   8   -103.3330539  0.110608E-02  0.276E-01    0.14       1.0  T
   9   -103.3370645 -0.401061E-02  0.125E-01    0.11       1.0  T
  10   -103.3375285 -0.464030E-03  0.998E-02    0.10       1.0  T
  11   -103.3383536 -0.825025E-03  0.373E-02    0.11       1.0  T
  12   -103.3373119  0.104163E-02  0.106E-01    0.10       1.0  T
  13   -103.3383128 -0.100083E-02  0.347E-02    0.11       1.0  T
  14   -103.3383700 -0.572574E-04  0.244E-02    0.11       1.0  T
  15   -103.3384226 -0.526237E-04  0.670E-03    0.11       1.9  T
  16   -103.3384251 -0.245309E-05  0.384E-03    0.11       3.3  T
  17   -103.3384265 -0.143524E-05  0.124E-03    0.11      10.0  T
  18   -103.3384266 -0.316754E-07  0.924E-04    0.11      13.5  T
  19   -103.3384266 -0.310089E-07  0.416E-04    0.11      30.0  T
     SCC iter.                  ...        0 min,  0.175 sec
     gradient                   ...        0 min,  0.014 sec
 * total energy  :  -102.0031409 Eh     change    :  -0.1755736E-01 Eh
   gradient norm :     0.1134811 Eh/a0  converged?    E=F G=F D=F
   time step     :     0.9493746 fs     power     :   0.1363037E-06
   step length   :     0.5293566 a0     speed     :   0.1348733E-01

........................................................................
.............................. CYCLE   40 ..............................
........................................................................

 iter      E             dE          RMSdq      gap      omega  full diag
   1   -103.2962333 -0.103296E+03  0.756E-01    0.22       0.0  T
   2   -102.6400594  0.656174E+00  0.262E+00    0.29       1.0  T
   3   -103.2383454 -0.598286E+00  0.100E+00    0.09       1.0  T
   4   -103.3141683 -0.758229E-01  0.527E-01    0.07       1.0  T
   5   -103.3132341  0.934195E-03  0.500E-01    0.05       1.0  T
   6   -103.3272858 -0.140517E-01  0.324E-01    0.12       1.0  T
   7   -103.3162359  0.110500E-01  0.464E-01    0.17       1.0  T
   8   -103.3344540 -0.182181E-01  0.138E-01    0.11       1.0  T
   9   -103.3356558 -0.120183E-02  0.684E-02    0.10       1.0  T
  10   -103.3357473 -0.915111E-04  0.511E-02    0.09       1.0  T
  11   -103.3358921 -0.144834E-03  0.275E-02    0.09       1.0  T
  12   -103.3359252 -0.330629E-04  0.149E-02    0.09       1.0  T
  13   -103.3359310 -0.574767E-05  0.111E-02    0.10       1.1  T
  14   -103.3359416 -0.106714E-04  0.240E-03    0.09       5.2  T
  15   -103.3359419 -0.308273E-06  0.831E-04    0.09      15.0  T
  16   -103.3359419 -0.297699E-08  0.678E-04    0.10      18.4  T
     SCC iter.                  ...        0 min,  0.149 sec
     gradient                   ...        0 min,  0.013 sec
 * total energy  :  -102.0208645 Eh     change    :  -0.1772355E-01 Eh
   gradient norm :     0.1002859 Eh/a0  converged?    E=F G=F D=F
   time step     :     1.0443120 fs     power     :   0.8685074E-07
   step length   :     0.5824419 a0     speed     :   0.1349079E-01

........................................................................
.............................. CYCLE   41 ..............................
........................................................................

 iter      E             dE          RMSdq      gap      omega  full diag
   1   -103.3368552 -0.103337E+03  0.445E-01    0.11       0.0  T
   2   -102.8765214  0.460334E+00  0.215E+00    0.21       1.0  T
   3   -103.3163273 -0.439806E+00  0.585E-01    0.19       1.0  T
   4   -103.3235593 -0.723205E-02  0.498E-01    0.04       1.0  T
   5   -103.3373943 -0.138350E-01  0.288E-01    0.09       1.0  T
   6   -103.3373774  0.169843E-04  0.269E-01    0.11       1.0  T
   7   -103.3433788 -0.600145E-02  0.894E-02    0.09       1.0  T
   8   -103.3436319 -0.253092E-03  0.818E-02    0.09       1.0  T
   9   -103.3436450 -0.130712E-04  0.776E-02    0.10       1.0  T
  10   -103.3440332 -0.388211E-03  0.395E-02    0.09       1.0  T
  11   -103.3441498 -0.116597E-03  0.158E-02    0.09       1.0  T
  12   -103.3441633 -0.135469E-04  0.985E-03    0.09       1.3  T
  13   -103.3441677 -0.437169E-05  0.577E-03    0.09       2.2  T
  14   -103.3441699 -0.221555E-05  0.178E-03    0.09       7.0  T
  15   -103.3441702 -0.307645E-06  0.172E-04    0.09      72.6  T
  16   -103.3441702 -0.182227E-08  0.837E-05    0.09     149.4  T
     SCC iter.                  ...        0 min,  0.147 sec
     gradient                   ...        0 min,  0.014 sec
 * total energy  :  -102.0323952 Eh     change    :  -0.1153071E-01 Eh
   gradient norm :     0.1036423 Eh/a0  converged?    E=F G=F D=F
   time step     :     1.1487432 fs     power     :  -0.1929805E-07
   step length   :     0.6321157 a0     speed     :   0.1331033E-01

........................................................................
.............................. CYCLE   42 ..............................
........................................................................
 * reset velocities

 iter      E             dE          RMSdq      gap      omega  full diag
   1   -103.3449396 -0.103345E+03  0.969E-02    0.08       0.0  T
   2   -103.3123815  0.325581E-01  0.608E-01    0.24       1.0  T
   3   -103.3450208 -0.326393E-01  0.888E-02    0.08       1.0  T
   4   -103.3448130  0.207772E-03  0.961E-02    0.10       1.0  T
   5   -103.3456373 -0.824339E-03  0.290E-02    0.09       1.0  T
   6   -103.3456153  0.219846E-04  0.272E-02    0.08       1.0  T
   7   -103.3456584 -0.430971E-04  0.168E-02    0.09       1.0  T
   8   -103.3456922 -0.337745E-04  0.556E-03    0.09       2.2  T
   9   -103.3456953 -0.312312E-05  0.141E-03    0.09       8.8  T
  10   -103.3456955 -0.161864E-06  0.556E-04    0.09      22.5  T
  11   -103.3456955 -0.124818E-07  0.378E-04    0.09      33.1  T
     SCC iter.                  ...        0 min,  0.106 sec
     gradient                   ...        0 min,  0.014 sec
 * total energy  :  -102.0354907 Eh     change    :  -0.3095560E-02 Eh
   gradient norm :     0.0905040 Eh/a0  converged?    E=F G=F D=F
   time step     :     0.5743716 fs     power     :   0.6630582E-07
   step length   :     0.0320577 a0     speed     :   0.1350066E-02
 * RMSD in coord.:     0.6066248 a0     energy gain  -0.3369709E+00 Eh

........................................................................
.............................. CYCLE   43 ..............................
........................................................................

 iter      E             dE          RMSdq      gap      omega  full diag
   1   -103.3464931 -0.103346E+03  0.572E-02    0.08       0.0  T
   2   -103.3261483  0.203447E-01  0.475E-01    0.18       1.0  T
   3   -103.3465065 -0.203582E-01  0.549E-02    0.08       1.0  T
   4   -103.3465575 -0.509495E-04  0.461E-02    0.09       1.0  T
   5   -103.3467476 -0.190159E-03  0.137E-02    0.09       1.0  T
   6   -103.3467399  0.766639E-05  0.138E-02    0.08       1.0  T
   7   -103.3467431 -0.316584E-05  0.110E-02    0.09       1.1  T
   8   -103.3467577 -0.145746E-04  0.448E-03    0.09       2.8  T
   9   -103.3467597 -0.205647E-05  0.469E-04    0.09      26.7  T
  10   -103.3467597  0.320131E-08  0.445E-04    0.09      28.1  T
  11   -103.3467598 -0.154934E-07  0.958E-05    0.09     130.4  T
     SCC iter.                  ...        0 min,  0.160 sec
     gradient                   ...        0 min,  0.014 sec
 * total energy  :  -102.0371484 Eh     change    :  -0.1657682E-02 Eh
   gradient norm :     0.0840285 Eh/a0  converged?    E=F G=F D=F
   time step     :     0.2500000 fs     power     :   0.8412789E-07
   step length   :     0.0192096 a0     speed     :   0.1858636E-02

........................................................................
.............................. CYCLE   44 ..............................
........................................................................

 iter      E             dE          RMSdq      gap      omega  full diag
   1   -103.3478611 -0.103348E+03  0.718E-02    0.08       0.0  T
   2   -103.3212124  0.266487E-01  0.543E-01    0.21       1.0  T
   3   -103.3481195 -0.269071E-01  0.474E-02    0.08       1.0  T
   4   -103.3479960  0.123512E-03  0.555E-02    0.09       1.0  T
   5   -103.3482654 -0.269399E-03  0.174E-02    0.08       1.0  T
   6   -103.3482643  0.114199E-05  0.163E-02    0.08       1.0  T
   7   -103.3482644 -0.102300E-06  0.135E-02    0.09       1.0  T
   8   -103.3482865 -0.220653E-04  0.502E-03    0.09       2.5  T
   9   -103.3482890 -0.258947E-05  0.581E-04    0.09      21.5  T
  10   -103.3482890 -0.284122E-08  0.519E-04    0.09      24.1  T
  11   -103.3482891 -0.177698E-07  0.244E-04    0.09      51.3  T
     SCC iter.                  ...        0 min,  0.104 sec
     gradient                   ...        0 min,  0.015 sec
 * total energy  :  -102.0390480 Eh     change    :  -0.1899539E-02 Eh
   gradient norm :     0.0773101 Eh/a0  converged?    E=F G=F D=F
   time step     :     0.2500000 fs     power     :   0.9541524E-07
   step length   :     0.0240448 a0     speed     :   0.2326467E-02

........................................................................
.............................. CYCLE   45 ..............................
........................................................................

 iter      E             dE          RMSdq      gap      omega  full diag
   1   -103.3497099 -0.103350E+03  0.861E-02    0.08       0.0  T
   2   -103.3173487  0.323612E-01  0.597E-01    0.24       1.0  T
   3   -103.3502198 -0.328712E-01  0.425E-02    0.08       1.0  T
   4   -103.3499922  0.227628E-03  0.603E-02    0.09       1.0  T
   5   -103.3502678 -0.275584E-03  0.272E-02    0.08       1.0  T
   6   -103.3503132 -0.453677E-04  0.172E-02    0.08       1.0  T
   7   -103.3503208 -0.759075E-05  0.123E-02    0.09       1.0  T
   8   -103.3503345 -0.137300E-04  0.604E-03    0.09       2.1  T
   9   -103.3503383 -0.378225E-05  0.134E-03    0.09       9.3  T
  10   -103.3503384 -0.176981E-06  0.400E-04    0.09      31.2  T
  11   -103.3503385 -0.656719E-08  0.273E-04    0.09      45.8  T
     SCC iter.                  ...        0 min,  0.103 sec
     gradient                   ...        0 min,  0.012 sec
 * total energy  :  -102.0410764 Eh     change    :  -0.2028428E-02 Eh
   gradient norm :     0.0710537 Eh/a0  converged?    E=F G=F D=F
   time step     :     0.2500000 fs     power     :   0.1010025E-06
   step length   :     0.0284015 a0     speed     :   0.2747998E-02

........................................................................
.............................. CYCLE   46 ..............................
........................................................................

 iter      E             dE          RMSdq      gap      omega  full diag
   1   -103.3520745 -0.103352E+03  0.101E-01    0.07       0.0  T
   2   -103.3142896  0.377849E-01  0.643E-01    0.27       1.0  T
   3   -103.3527274 -0.384378E-01  0.549E-02    0.09       1.0  T
   4   -103.3526577  0.697790E-04  0.549E-02    0.09       1.0  T
   5   -103.3527812 -0.123584E-03  0.419E-02    0.08       1.0  T
   6   -103.3529283 -0.147032E-03  0.164E-02    0.08       1.0  T
   7   -103.3529474 -0.191759E-04  0.814E-03    0.08       1.5  T
   8   -103.3529502 -0.271781E-05  0.543E-03    0.08       2.3  T
   9   -103.3529516 -0.148705E-05  0.321E-03    0.08       3.9  T
  10   -103.3529529 -0.122526E-05  0.581E-04    0.08      21.5  T
  11   -103.3529529 -0.181674E-07  0.307E-04    0.08      40.7  T
  12   -103.3529529  0.151249E-07  0.471E-04    0.08      26.5  T
     SCC iter.                  ...        0 min,  0.112 sec
     gradient                   ...        0 min,  0.012 sec
 * total energy  :  -102.0431464 Eh     change    :  -0.2070010E-02 Eh
   gradient norm :     0.0657463 Eh/a0  converged?    E=F G=F D=F
   time step     :     0.2500000 fs     power     :   0.1024308E-06
   step length   :     0.0322500 a0     speed     :   0.3120363E-02

........................................................................
.............................. CYCLE   47 ..............................
........................................................................

 iter      E             dE          RMSdq      gap      omega  full diag
   1   -103.3549708 -0.103355E+03  0.116E-01    0.07       0.0  T
   2   -103.3118021  0.431686E-01  0.684E-01    0.29       1.0  T
   3   -103.3556623 -0.438602E-01  0.770E-02    0.09       1.0  T
   4   -103.3559576 -0.295271E-03  0.426E-02    0.09       1.0  T
   5   -103.3558833  0.742699E-04  0.521E-02    0.08       1.0  T
   6   -103.3560967 -0.213342E-03  0.240E-02    0.08       1.0  T
   7   -103.3561448 -0.481695E-04  0.846E-03    0.08       1.5  T
   8   -103.3561487 -0.385140E-05  0.547E-03    0.08       2.3  T
   9   -103.3561505 -0.178867E-05  0.377E-03    0.08       3.3  T
  10   -103.3561517 -0.123431E-05  0.728E-04    0.08      17.2  T
  11   -103.3561517 -0.257430E-07  0.345E-04    0.08      36.3  T
  12   -103.3561517  0.281595E-07  0.626E-04    0.08      20.0  T
     SCC iter.                  ...        0 min,  0.115 sec
     gradient                   ...        0 min,  0.015 sec
 * total energy  :  -102.0452022 Eh     change    :  -0.2055747E-02 Eh
   gradient norm :     0.0614858 Eh/a0  converged?    E=F G=F D=F
   time step     :     0.2500000 fs     power     :   0.1013580E-06
   step length   :     0.0355878 a0     speed     :   0.3443308E-02

........................................................................
.............................. CYCLE   48 ..............................
........................................................................

 iter      E             dE          RMSdq      gap      omega  full diag
   1   -103.3583862 -0.103358E+03  0.148E-01    0.07       0.0  T
   2   -103.3051432  0.532430E-01  0.756E-01    0.34       1.0  T
   3   -103.3590591 -0.539159E-01  0.123E-01    0.10       1.0  T
   4   -103.3600161 -0.956973E-03  0.553E-02    0.09       1.0  T
   5   -103.3600078  0.823800E-05  0.574E-02    0.07       1.0  T
   6   -103.3601690 -0.161136E-03  0.421E-02    0.08       1.0  T
   7   -103.3603248 -0.155841E-03  0.119E-02    0.08       1.1  T
   8   -103.3603305 -0.571224E-05  0.933E-03    0.08       1.3  T
   9   -103.3603355 -0.497465E-05  0.466E-03    0.08       2.7  T
  10   -103.3603374 -0.192501E-05  0.142E-03    0.08       8.8  T
  11   -103.3603375 -0.131116E-06  0.585E-04    0.08      21.4  T
  12   -103.3603375  0.338989E-07  0.845E-04    0.08      14.8  T
     SCC iter.                  ...        0 min,  0.112 sec
     gradient                   ...        0 min,  0.012 sec
 * total energy  :  -102.0474236 Eh     change    :  -0.2221494E-02 Eh
   gradient norm :     0.0577614 Eh/a0  converged?    E=F G=F D=F
   time step     :     0.2750000 fs     power     :   0.9863644E-07
   step length   :     0.0426447 a0     speed     :   0.3751003E-02

........................................................................
.............................. CYCLE   49 ..............................
........................................................................

 iter      E             dE          RMSdq      gap      omega  full diag
   1   -103.3624488 -0.103362E+03  0.189E-01    0.06       0.0  T
   2   -103.2960024  0.664465E-01  0.841E-01    0.37       1.0  T
   3   -103.3629282 -0.669258E-01  0.180E-01    0.10       1.0  T
   4   -103.3647147 -0.178646E-02  0.952E-02    0.09       1.0  T
   5   -103.3654295 -0.714856E-03  0.458E-02    0.07       1.0  T
   6   -103.3653647  0.648597E-04  0.507E-02    0.08       1.0  T
   7   -103.3654618 -0.970791E-04  0.403E-02    0.08       1.0  T
   8   -103.3656084 -0.146655E-03  0.112E-02    0.08       1.1  T
   9   -103.3656116 -0.323388E-05  0.872E-03    0.08       1.4  T
  10   -103.3656183 -0.663447E-05  0.235E-03    0.08       5.3  T
  11   -103.3656185 -0.262774E-06  0.140E-03    0.08       8.9  T
  12   -103.3656186 -0.101470E-06  0.972E-04    0.08      12.9  T
  13   -103.3656187 -0.598933E-07  0.514E-04    0.08      24.3  T
     SCC iter.                  ...        0 min,  0.120 sec
     gradient                   ...        0 min,  0.014 sec
 * total energy  :  -102.0497938 Eh     change    :  -0.2370204E-02 Eh
   gradient norm :     0.0543887 Eh/a0  converged?    E=F G=F D=F
   time step     :     0.3025000 fs     power     :   0.9476509E-07
   step length   :     0.0505164 a0     speed     :   0.4039448E-02

........................................................................
.............................. CYCLE   50 ..............................
........................................................................

 iter      E             dE          RMSdq      gap      omega  full diag
   1   -103.3671187 -0.103367E+03  0.236E-01    0.06       0.0  T
   2   -103.2836803  0.834384E-01  0.940E-01    0.38       1.0  T
   3   -103.3669523 -0.832721E-01  0.251E-01    0.11       1.0  T
   4   -103.3700874 -0.313510E-02  0.142E-01    0.10       1.0  T
   5   -103.3719041 -0.181668E-02  0.392E-02    0.07       1.0  T
   6   -103.3715848  0.319309E-03  0.652E-02    0.07       1.0  T
   7   -103.3717306 -0.145763E-03  0.502E-02    0.07       1.0  T
   8   -103.3719735 -0.242904E-03  0.183E-02    0.08       1.0  T
   9   -103.3719881 -0.146118E-04  0.125E-02    0.08       1.0  T
  10   -103.3720010 -0.129202E-04  0.364E-03    0.08       3.4  T
  11   -103.3720014 -0.413283E-06  0.266E-03    0.08       4.7  T
  12   -103.3720020 -0.554158E-06  0.975E-04    0.08      12.8  T
  13   -103.3720020 -0.425270E-07  0.679E-04    0.08      18.4  T
     SCC iter.                  ...        0 min,  0.121 sec
     gradient                   ...        0 min,  0.016 sec
 * total energy  :  -102.0522957 Eh     change    :  -0.2501882E-02 Eh
   gradient norm :     0.0511603 Eh/a0  converged?    E=F G=F D=F
   time step     :     0.3327500 fs     power     :   0.9003632E-07
   step length   :     0.0592413 a0     speed     :   0.4306474E-02

........................................................................
.............................. CYCLE   51 ..............................
........................................................................

 iter      E             dE          RMSdq      gap      omega  full diag
   1   -103.3723799 -0.103372E+03  0.283E-01    0.05       0.0  T
   2   -103.2692039  0.103176E+00  0.104E+00    0.39       1.0  T
   3   -103.3707973 -0.101593E+00  0.332E-01    0.11       1.0  T
   4   -103.3763117 -0.551440E-02  0.182E-01    0.10       1.0  T
   5   -103.3792243 -0.291267E-02  0.450E-02    0.07       1.0  T
   6   -103.3778122  0.141217E-02  0.127E-01    0.06       1.0  T
   7   -103.3789094 -0.109725E-02  0.621E-02    0.07       1.0  T
   8   -103.3793145 -0.405119E-03  0.145E-02    0.07       1.0  T
   9   -103.3792952  0.193736E-04  0.208E-02    0.08       1.0  T
  10   -103.3793307 -0.355409E-04  0.654E-03    0.07       1.9  T
  11   -103.3793322 -0.152394E-05  0.469E-03    0.07       2.7  T
  12   -103.3793341 -0.185403E-05  0.956E-04    0.07      13.1  T
  13   -103.3793341 -0.100360E-07  0.895E-04    0.07      14.0  T
  14   -103.3793342 -0.625837E-07  0.292E-04    0.07      42.9  T
     SCC iter.                  ...        0 min,  0.131 sec
     gradient                   ...        0 min,  0.014 sec
 * total energy  :  -102.0549070 Eh     change    :  -0.2611296E-02 Eh
   gradient norm :     0.0480268 Eh/a0  converged?    E=F G=F D=F
   time step     :     0.3660250 fs     power     :   0.8441888E-07
   step length   :     0.0688673 a0     speed     :   0.4551108E-02

........................................................................
.............................. CYCLE   52 ..............................
........................................................................

 iter      E             dE          RMSdq      gap      omega  full diag
   1   -103.3783779 -0.103378E+03  0.323E-01    0.04       0.0  T
   2   -103.2575931  0.120785E+00  0.113E+00    0.39       1.0  T
   3   -103.3753298 -0.117737E+00  0.398E-01    0.12       1.0  T
   4   -103.3833074 -0.797760E-02  0.209E-01    0.09       1.0  T
   5   -103.3868185 -0.351103E-02  0.708E-02    0.07       1.0  T
   6   -103.3846454  0.217305E-02  0.166E-01    0.05       1.0  T
   7   -103.3864523 -0.180684E-02  0.909E-02    0.06       1.0  T
   8   -103.3872220 -0.769744E-03  0.183E-02    0.07       1.0  T
   9   -103.3871688  0.531648E-04  0.305E-02    0.07       1.0  T
  10   -103.3872430 -0.741764E-04  0.986E-03    0.07       1.3  T
  11   -103.3872471 -0.411155E-05  0.657E-03    0.07       1.9  T
  12   -103.3872508 -0.365400E-05  0.108E-03    0.07      11.6  T
  13   -103.3872508  0.562710E-08  0.111E-03    0.07      11.3  T
  14   -103.3872509 -0.104451E-06  0.228E-04    0.07      54.9  T
  15   -103.3872509 -0.438114E-08  0.577E-05    0.07     216.6  T
     SCC iter.                  ...        0 min,  0.146 sec
     gradient                   ...        0 min,  0.014 sec
 * total energy  :  -102.0575977 Eh     change    :  -0.2690718E-02 Eh
   gradient norm :     0.0453018 Eh/a0  converged?    E=F G=F D=F
   time step     :     0.4026275 fs     power     :   0.7797473E-07
   step length   :     0.0794171 a0     speed     :   0.4771179E-02

........................................................................
.............................. CYCLE   53 ..............................
........................................................................

 iter      E             dE          RMSdq      gap      omega  full diag
   1   -103.3849311 -0.103385E+03  0.351E-01    0.04       0.0  T
   2   -103.2523536  0.132577E+00  0.119E+00    0.39       1.0  T
   3   -103.3813021 -0.128948E+00  0.436E-01    0.12       1.0  T
   4   -103.3904587 -0.915662E-02  0.229E-01    0.09       1.0  T
   5   -103.3941271 -0.366842E-02  0.101E-01    0.07       1.0  T
   6   -103.3908392  0.328786E-02  0.215E-01    0.05       1.0  T
   7   -103.3940836 -0.324435E-02  0.107E-01    0.06       1.0  T
   8   -103.3951234 -0.103984E-02  0.228E-02    0.07       1.0  T
   9   -103.3950166  0.106816E-03  0.415E-02    0.07       1.0  T
  10   -103.3951510 -0.134395E-03  0.137E-02    0.07       1.0  T
  11   -103.3951609 -0.986529E-05  0.783E-03    0.07       1.6  T
  12   -103.3951662 -0.528123E-05  0.112E-03    0.07      11.2  T
  13   -103.3951661  0.399697E-07  0.132E-03    0.07       9.5  T
  14   -103.3951663 -0.152878E-06  0.148E-04    0.07      84.7  T
  15   -103.3951663 -0.153094E-09  0.151E-04    0.07      82.5  T
     SCC iter.                  ...        0 min,  0.147 sec
     gradient                   ...        0 min,  0.013 sec
 * total energy  :  -102.0603432 Eh     change    :  -0.2745483E-02 Eh
   gradient norm :     0.0435910 Eh/a0  converged?    E=F G=F D=F
   time step     :     0.4428903 fs     power     :   0.7134239E-07
   step length   :     0.0908620 a0     speed     :   0.4962511E-02

........................................................................
.............................. CYCLE   54 ..............................
........................................................................

 iter      E             dE          RMSdq      gap      omega  full diag
   1   -103.3910580 -0.103391E+03  0.373E-01    0.04       0.0  T
   2   -103.2482841  0.142774E+00  0.125E+00    0.38       1.0  T
   3   -103.3868931 -0.138609E+00  0.467E-01    0.12       1.0  T
   4   -103.3964625 -0.956944E-02  0.258E-01    0.09       1.0  T
   5   -103.4009076 -0.444507E-02  0.119E-01    0.07       1.0  T
   6   -103.3953049  0.560273E-02  0.276E-01    0.04       1.0  T
   7   -103.4008180 -0.551314E-02  0.129E-01    0.05       1.0  T
   8   -103.4022798 -0.146180E-02  0.328E-02    0.07       1.0  T
   9   -103.4021374  0.142442E-03  0.518E-02    0.07       1.0  T
  10   -103.4023409 -0.203531E-03  0.180E-02    0.06       1.0  T
  11   -103.4023613 -0.204236E-04  0.819E-03    0.06       1.5  T
  12   -103.4023671 -0.581198E-05  0.112E-03    0.06      11.1  T
  13   -103.4023670  0.111591E-06  0.162E-03    0.06       7.7  T
  14   -103.4023672 -0.228342E-06  0.221E-04    0.06      56.4  T
  15   -103.4023672 -0.129290E-09  0.227E-04    0.06      55.2  T
     SCC iter.                  ...        0 min,  0.144 sec
     gradient                   ...        0 min,  0.013 sec
 * total energy  :  -102.0631633 Eh     change    :  -0.2820067E-02 Eh
   gradient norm :     0.0432491 Eh/a0  converged?    E=F G=F D=F
   time step     :     0.4871793 fs     power     :   0.6629604E-07
   step length   :     0.1031637 a0     speed     :   0.5122159E-02

........................................................................
.............................. CYCLE   55 ..............................
........................................................................

 iter      E             dE          RMSdq      gap      omega  full diag
   1   -103.3948932 -0.103395E+03  0.409E-01    0.03       0.0  T
   2   -103.2266524  0.168241E+00  0.135E+00    0.36       1.0  T
   3   -103.3869358 -0.160283E+00  0.553E-01    0.13       1.0  T
   4   -103.3996701 -0.127344E-01  0.312E-01    0.09       1.0  T
   5   -103.4064041 -0.673397E-02  0.136E-01    0.07       1.0  T
   6   -103.4002880  0.611611E-02  0.295E-01    0.04       1.0  T
   7   -103.4057068 -0.541881E-02  0.167E-01    0.05       1.0  T
   8   -103.4081437 -0.243693E-02  0.391E-02    0.06       1.0  T
   9   -103.4079610  0.182742E-03  0.602E-02    0.07       1.0  T
  10   -103.4082252 -0.264279E-03  0.223E-02    0.06       1.0  T
  11   -103.4082639 -0.386103E-04  0.499E-03    0.06       2.5  T
  12   -103.4082658 -0.191212E-05  0.174E-03    0.06       7.2  T
  13   -103.4082657  0.417481E-07  0.195E-03    0.06       6.4  T
  14   -103.4082660 -0.276800E-06  0.718E-04    0.06      17.4  T
  15   -103.4082660 -0.428610E-07  0.152E-04    0.06      82.2  T
     SCC iter.                  ...        0 min,  0.147 sec
     gradient                   ...        0 min,  0.014 sec
 * total energy  :  -102.0661677 Eh     change    :  -0.3004373E-02 Eh
   gradient norm :     0.0436662 Eh/a0  converged?    E=F G=F D=F
   time step     :     0.5358972 fs     power     :   0.6488868E-07
   step length   :     0.1165239 a0     speed     :   0.5259551E-02

........................................................................
.............................. CYCLE   56 ..............................
........................................................................

 iter      E             dE          RMSdq      gap      omega  full diag
   1   -103.3946102 -0.103395E+03  0.476E-01    0.03       0.0  T
   2   -103.1545332  0.240077E+00  0.158E+00    0.30       1.0  T
   3   -103.3766855 -0.222152E+00  0.722E-01    0.17       1.0  T
   4   -103.4003667 -0.236812E-01  0.376E-01    0.09       1.0  T
   5   -103.4095789 -0.921223E-02  0.170E-01    0.07       1.0  T
   6   -103.4082090  0.136996E-02  0.222E-01    0.05       1.0  T
   7   -103.4097381 -0.152909E-02  0.183E-01    0.04       1.0  T
   8   -103.4125519 -0.281386E-02  0.387E-02    0.06       1.0  T
   9   -103.4124115  0.140372E-03  0.583E-02    0.06       1.0  T
  10   -103.4126588 -0.247244E-03  0.201E-02    0.06       1.0  T
  11   -103.4126922 -0.334549E-04  0.121E-03    0.06      10.3  T
  12   -103.4126917  0.558348E-06  0.285E-03    0.06       4.4  T
  13   -103.4126920 -0.306236E-06  0.211E-03    0.06       5.9  T
  14   -103.4126923 -0.334420E-06  0.544E-04    0.06      23.0  T
  15   -103.4126923 -0.237849E-07  0.117E-04    0.06     107.2  T
     SCC iter.                  ...        0 min,  0.151 sec
     gradient                   ...        0 min,  0.012 sec
 * total energy  :  -102.0695604 Eh     change    :  -0.3392765E-02 Eh
   gradient norm :     0.0456351 Eh/a0  converged?    E=F G=F D=F
   time step     :     0.5894869 fs     power     :   0.6826520E-07
   step length   :     0.1316753 a0     speed     :   0.5403128E-02

........................................................................
.............................. CYCLE   57 ..............................
........................................................................

 iter      E             dE          RMSdq      gap      omega  full diag
   1   -103.3910961 -0.103391E+03  0.560E-01    0.05       0.0  T
   2   -103.0315842  0.359512E+00  0.188E+00    0.25       1.0  T
   3   -103.3659735 -0.334389E+00  0.856E-01    0.20       1.0  T
   4   -103.4013844 -0.354109E-01  0.413E-01    0.08       1.0  T
   5   -103.4104064 -0.902201E-02  0.225E-01    0.07       1.0  T
   6   -103.4143797 -0.397323E-02  0.127E-01    0.06       1.0  T
   7   -103.4117939  0.258577E-02  0.219E-01    0.04       1.0  T
   8   -103.4153023 -0.350837E-02  0.691E-02    0.06       1.0  T
   9   -103.4156787 -0.376385E-03  0.485E-02    0.06       1.0  T
  10   -103.4158477 -0.169008E-03  0.172E-02    0.06       1.0  T
  11   -103.4158712 -0.235386E-04  0.281E-03    0.06       4.4  T
  12   -103.4158699  0.129964E-05  0.509E-03    0.06       2.5  T
  13   -103.4158715 -0.160500E-05  0.252E-03    0.06       5.0  T
  14   -103.4158720 -0.440532E-06  0.869E-04    0.06      14.4  T
  15   -103.4158720 -0.564182E-07  0.218E-04    0.06      57.4  T
     SCC iter.                  ...        0 min,  0.145 sec
     gradient                   ...        0 min,  0.012 sec
 * total energy  :  -102.0737768 Eh     change    :  -0.4216325E-02 Eh
   gradient norm :     0.0509429 Eh/a0  converged?    E=F G=F D=F
   time step     :     0.6484356 fs     power     :   0.8144050E-07
   step length   :     0.1498131 a0     speed     :   0.5588535E-02

........................................................................
.............................. CYCLE   58 ..............................
........................................................................

 iter      E             dE          RMSdq      gap      omega  full diag
   1   -103.3904794 -0.103390E+03  0.602E-01    0.07       0.0  T
   2   -102.9686486  0.421831E+00  0.202E+00    0.23       1.0  T
   3   -103.3682750 -0.399626E+00  0.858E-01    0.20       1.0  T
   4   -103.4047350 -0.364600E-01  0.388E-01    0.06       1.0  T
   5   -103.4123239 -0.758888E-02  0.248E-01    0.08       1.0  T
   6   -103.4162531 -0.392925E-02  0.136E-01    0.06       1.0  T
   7   -103.4120406  0.421251E-02  0.260E-01    0.05       1.0  T
   8   -103.4168399 -0.479931E-02  0.948E-02    0.08       1.0  T
   9   -103.4176489 -0.808950E-03  0.515E-02    0.07       1.0  T
  10   -103.4178381 -0.189171E-03  0.213E-02    0.07       1.0  T
  11   -103.4178783 -0.402389E-04  0.508E-03    0.07       2.5  T
  12   -103.4178760  0.224882E-05  0.730E-03    0.07       1.7  T
  13   -103.4178795 -0.343428E-05  0.313E-03    0.07       4.0  T
  14   -103.4178802 -0.757446E-06  0.717E-04    0.07      17.4  T
  15   -103.4178803 -0.263747E-07  0.442E-04    0.07      28.3  T
     SCC iter.                  ...        0 min,  0.144 sec
     gradient                   ...        0 min,  0.013 sec
 * total energy  :  -102.0797611 Eh     change    :  -0.5984335E-02 Eh
   gradient norm :     0.0572378 Eh/a0  converged?    E=F G=F D=F
   time step     :     0.7132792 fs     power     :   0.1113328E-06
   step length   :     0.1735877 a0     speed     :   0.5886734E-02

........................................................................
.............................. CYCLE   59 ..............................
........................................................................

 iter      E             dE          RMSdq      gap      omega  full diag
   1   -103.3977933 -0.103398E+03  0.549E-01    0.10       0.0  T
   2   -103.0539922  0.343801E+00  0.191E+00    0.21       1.0  T
   3   -103.3915473 -0.337555E+00  0.629E-01    0.16       1.0  T
   4   -103.4027227 -0.111754E-01  0.393E-01    0.04       1.0  T
   5   -103.4141361 -0.114134E-01  0.223E-01    0.11       1.0  T
   6   -103.4154926 -0.135649E-02  0.178E-01    0.08       1.0  T
   7   -103.4165508 -0.105821E-02  0.147E-01    0.08       1.0  T
   8   -103.4179083 -0.135752E-02  0.681E-02    0.09       1.0  T
   9   -103.4182795 -0.371147E-03  0.379E-02    0.09       1.0  T
  10   -103.4184037 -0.124223E-03  0.960E-03    0.08       1.3  T
  11   -103.4183991  0.460541E-05  0.113E-02    0.08       1.1  T
  12   -103.4184089 -0.975997E-05  0.375E-03    0.08       3.3  T
  13   -103.4184098 -0.916041E-06  0.138E-03    0.08       9.1  T
  14   -103.4184099 -0.150319E-06  0.367E-04    0.08      34.1  T
  15   -103.4184099 -0.410539E-08  0.247E-04    0.08      50.6  T
     SCC iter.                  ...        0 min,  0.155 sec
     gradient                   ...        0 min,  0.015 sec
 * total energy  :  -102.0887599 Eh     change    :  -0.8998813E-02 Eh
   gradient norm :     0.0639925 Eh/a0  converged?    E=F G=F D=F
   time step     :     0.7846071 fs     power     :   0.1499718E-06
   step length   :     0.2079336 a0     speed     :   0.6410435E-02

........................................................................
.............................. CYCLE   60 ..............................
........................................................................

 iter      E             dE          RMSdq      gap      omega  full diag
   1   -103.4088798 -0.103409E+03  0.399E-01    0.13       0.0  T
   2   -103.2285717  0.180308E+00  0.151E+00    0.21       1.0  T
   3   -103.4136242 -0.185052E+00  0.237E-01    0.12       1.0  T
   4   -103.3945228  0.191015E-01  0.454E-01    0.07       1.0  T
   5   -103.4120618 -0.175391E-01  0.218E-01    0.16       1.0  T
   6   -103.4151558 -0.309397E-02  0.131E-01    0.11       1.0  T
   7   -103.4165136 -0.135780E-02  0.952E-02    0.13       1.0  T
   8   -103.4170051 -0.491469E-03  0.560E-02    0.12       1.0  T
   9   -103.4173051 -0.300024E-03  0.292E-02    0.11       1.0  T
  10   -103.4173814 -0.763228E-04  0.568E-03    0.11       2.2  T
  11   -103.4173828 -0.140011E-05  0.339E-03    0.11       3.7  T
  12   -103.4173829 -0.103771E-06  0.260E-03    0.11       4.8  T
  13   -103.4173833 -0.357042E-06  0.164E-03    0.11       7.6  T
  14   -103.4173836 -0.274408E-06  0.357E-04    0.11      35.0  T
  15   -103.4173836 -0.133123E-07  0.857E-05    0.11     145.9  T
     SCC iter.                  ...        0 min,  0.174 sec
     gradient                   ...        0 min,  0.014 sec
 * total energy  :  -102.1009353 Eh     change    :  -0.1217535E-01 Eh
   gradient norm :     0.0655232 Eh/a0  converged?    E=F G=F D=F
   time step     :     0.8630678 fs     power     :   0.1612015E-06
   step length   :     0.2563653 a0     speed     :   0.7185043E-02

........................................................................
.............................. CYCLE   61 ..............................
........................................................................

 iter      E             dE          RMSdq      gap      omega  full diag
   1   -103.4137752 -0.103414E+03  0.277E-01    0.16       0.0  T
   2   -103.3629396  0.508356E-01  0.880E-01    0.21       1.0  T
   3   -103.3969168 -0.339771E-01  0.530E-01    0.15       1.0  T
   4   -103.4106781 -0.137613E-01  0.229E-01    0.13       1.0  T
   5   -103.4077190  0.295909E-02  0.266E-01    0.22       1.0  T
   6   -103.4135460 -0.582704E-02  0.158E-01    0.14       1.0  T
   7   -103.4156155 -0.206951E-02  0.889E-02    0.16       1.0  T
   8   -103.4162218 -0.606310E-03  0.403E-02    0.15       1.0  T
   9   -103.4163857 -0.163903E-03  0.146E-02    0.15       1.0  T
  10   -103.4164005 -0.147036E-04  0.539E-03    0.15       2.3  T
  11   -103.4164024 -0.195473E-05  0.323E-03    0.15       3.9  T
  12   -103.4164031 -0.655905E-06  0.871E-04    0.15      14.4  T
  13   -103.4164031 -0.378934E-07  0.437E-04    0.15      28.6  T
     SCC iter.                  ...        0 min,  0.140 sec
     gradient                   ...        0 min,  0.014 sec
 * total energy  :  -102.1119643 Eh     change    :  -0.1102903E-01 Eh
   gradient norm :     0.0639985 Eh/a0  converged?    E=F G=F D=F
   time step     :     0.9493746 fs     power     :   0.6023364E-07
   step length   :     0.3135733 a0     speed     :   0.7989444E-02

........................................................................
.............................. CYCLE   62 ..............................
........................................................................

 iter      E             dE          RMSdq      gap      omega  full diag
   1   -103.4196933 -0.103420E+03  0.233E-01    0.20       0.0  T
   2   -103.4129209  0.677240E-02  0.368E-01    0.24       1.0  T
   3   -103.4135712 -0.650322E-03  0.328E-01    0.18       1.0  T
   4   -103.4128086  0.762654E-03  0.368E-01    0.20       1.0  T
   5   -103.4146076 -0.179909E-02  0.252E-01    0.28       1.0  T
   6   -103.4215574 -0.694979E-02  0.401E-02    0.21       1.0  T
   7   -103.4216330 -0.756016E-04  0.230E-02    0.20       1.0  T
   8   -103.4216787 -0.457030E-04  0.127E-02    0.20       1.0  T
   9   -103.4216949 -0.161242E-04  0.400E-03    0.20       3.1  T
  10   -103.4216951 -0.208225E-06  0.246E-03    0.20       5.1  T
  11   -103.4216954 -0.319380E-06  0.689E-04    0.20      18.1  T
  12   -103.4216954 -0.347280E-07  0.333E-04    0.20      37.5  T
     SCC iter.                  ...        0 min,  0.131 sec
     gradient                   ...        0 min,  0.019 sec
 * total energy  :  -102.1123289 Eh     change    :  -0.3646168E-03 Eh
   gradient norm :     0.1171460 Eh/a0  converged?    E=F G=F D=F
   time step     :     1.0443120 fs     power     :  -0.1551591E-06
   step length   :     0.3481532 a0     speed     :   0.8064086E-02

........................................................................
.............................. CYCLE   63 ..............................
........................................................................
 * reset velocities

 iter      E             dE          RMSdq      gap      omega  full diag
   1   -103.4269411 -0.103427E+03  0.351E-02    0.20       0.0  T
   2   -103.4246325  0.230859E-02  0.173E-01    0.18       1.0  T
   3   -103.4268769 -0.224440E-02  0.410E-02    0.20       1.0  T
   4   -103.4268269  0.500599E-04  0.424E-02    0.21       1.0  T
   5   -103.4269939 -0.167054E-03  0.106E-02    0.20       1.2  T
   6   -103.4270024 -0.846183E-05  0.440E-03    0.20       2.8  T
   7   -103.4270034 -0.104614E-05  0.241E-03    0.20       5.2  T
   8   -103.4270041 -0.626912E-06  0.742E-04    0.20      16.8  T
   9   -103.4270041 -0.342644E-07  0.292E-04    0.20      42.8  T
     SCC iter.                  ...        0 min,  0.108 sec
     gradient                   ...        0 min,  0.015 sec
 * total energy  :  -102.1155357 Eh     change    :  -0.3206813E-02 Eh
   gradient norm :     0.0975539 Eh/a0  converged?    E=F G=F D=F
   time step     :     0.5221560 fs     power     :   0.7397120E-07
   step length   :     0.0299459 a0     speed     :   0.1387243E-02

........................................................................
.............................. CYCLE   64 ..............................
........................................................................

 iter      E             dE          RMSdq      gap      omega  full diag
   1   -103.4362719 -0.103436E+03  0.646E-02    0.21       0.0  T
   2   -103.4274917  0.878022E-02  0.341E-01    0.18       1.0  T
   3   -103.4361710 -0.867930E-02  0.643E-02    0.20       1.0  T
   4   -103.4357962  0.374759E-03  0.829E-02    0.22       1.0  T
   5   -103.4364494 -0.653128E-03  0.186E-02    0.20       1.0  T
   6   -103.4364714 -0.220440E-04  0.916E-03    0.20       1.4  T
   7   -103.4364754 -0.393346E-05  0.494E-03    0.20       2.5  T
   8   -103.4364782 -0.285839E-05  0.132E-03    0.20       9.4  T
   9   -103.4364783 -0.109078E-06  0.476E-04    0.20      26.3  T
  10   -103.4364783 -0.143041E-08  0.373E-04    0.20      33.5  T
     SCC iter.                  ...        0 min,  0.105 sec
     gradient                   ...        0 min,  0.013 sec
 * total energy  :  -102.1199681 Eh     change    :  -0.4432350E-02 Eh
   gradient norm :     0.0673399 Eh/a0  converged?    E=F G=F D=F
   time step     :     0.5221560 fs     power     :   0.9011826E-07
   step length   :     0.0548339 a0     speed     :   0.2540176E-02

........................................................................
.............................. CYCLE   65 ..............................
........................................................................

 iter      E             dE          RMSdq      gap      omega  full diag
   1   -103.4479547 -0.103448E+03  0.878E-02    0.22       0.0  T
   2   -103.4297756  0.181791E-01  0.497E-01    0.18       1.0  T
   3   -103.4479654 -0.181898E-01  0.703E-02    0.20       1.0  T
   4   -103.4471171  0.848360E-03  0.110E-01    0.23       1.0  T
   5   -103.4482822 -0.116515E-02  0.266E-02    0.20       1.0  T
   6   -103.4483216 -0.394088E-04  0.142E-02    0.21       1.0  T
   7   -103.4483354 -0.138187E-04  0.545E-03    0.21       2.3  T
   8   -103.4483388 -0.335288E-05  0.183E-03    0.21       6.8  T
   9   -103.4483390 -0.214438E-06  0.567E-04    0.21      22.1  T
  10   -103.4483390  0.446315E-08  0.482E-04    0.21      25.9  T
     SCC iter.                  ...        0 min,  0.095 sec
     gradient                   ...        0 min,  0.018 sec
 * total energy  :  -102.1233931 Eh     change    :  -0.3425034E-02 Eh
   gradient norm :     0.0437304 Eh/a0  converged?    E=F G=F D=F
   time step     :     0.5221560 fs     power     :   0.5522637E-07
   step length   :     0.0714291 a0     speed     :   0.3308947E-02

........................................................................
.............................. CYCLE   66 ..............................
........................................................................

 iter      E             dE          RMSdq      gap      omega  full diag
   1   -103.4600377 -0.103460E+03  0.103E-01    0.22       0.0  T
   2   -103.4326920  0.273456E-01  0.615E-01    0.18       1.0  T
   3   -103.4602438 -0.275518E-01  0.662E-02    0.20       1.0  T
   4   -103.4592721  0.971746E-03  0.114E-01    0.24       1.0  T
   5   -103.4604990 -0.122692E-02  0.357E-02    0.21       1.0  T
   6   -103.4605852 -0.862254E-04  0.153E-02    0.21       1.0  T
   7   -103.4605998 -0.145954E-04  0.492E-03    0.21       2.5  T
   8   -103.4606020 -0.218061E-05  0.215E-03    0.21       5.8  T
   9   -103.4606023 -0.308926E-06  0.684E-04    0.21      18.3  T
  10   -103.4606023 -0.743191E-08  0.475E-04    0.21      26.3  T
     SCC iter.                  ...        0 min,  0.102 sec
     gradient                   ...        0 min,  0.014 sec
 * total energy  :  -102.1249988 Eh     change    :  -0.1605716E-02 Eh
   gradient norm :     0.0449151 Eh/a0  converged?    E=F G=F D=F
   time step     :     0.5221560 fs     power     :   0.1246167E-07
   step length   :     0.0781490 a0     speed     :   0.3620248E-02

........................................................................
.............................. CYCLE   67 ..............................
........................................................................

 iter      E             dE          RMSdq      gap      omega  full diag
   1   -103.4707108 -0.103471E+03  0.102E-01    0.23       0.0  T
   2   -103.4428816  0.278292E-01  0.621E-01    0.18       1.0  T
   3   -103.4709720 -0.280904E-01  0.618E-02    0.20       1.0  T
   4   -103.4703332  0.638778E-03  0.994E-02    0.24       1.0  T
   5   -103.4712255 -0.892351E-03  0.364E-02    0.21       1.0  T
   6   -103.4713094 -0.838692E-04  0.148E-02    0.21       1.0  T
   7   -103.4713228 -0.134452E-04  0.424E-03    0.21       2.9  T
   8   -103.4713241 -0.130374E-05  0.204E-03    0.21       6.1  T
   9   -103.4713244 -0.266819E-06  0.765E-04    0.21      16.3  T
  10   -103.4713244 -0.243492E-07  0.402E-04    0.21      31.1  T
     SCC iter.                  ...        0 min,  0.097 sec
     gradient                   ...        0 min,  0.013 sec
 * total energy  :  -102.1256258 Eh     change    :  -0.6269817E-03 Eh
   gradient norm :     0.0555361 Eh/a0  converged?    E=F G=F D=F
   time step     :     0.5221560 fs     power     :  -0.1022957E-08
   step length   :     0.0754881 a0     speed     :   0.3496982E-02
 * RMSD in coord.:     0.2409393 a0     energy gain  -0.9013505E-01 Eh

........................................................................
.............................. CYCLE   68 ..............................
........................................................................
 * reset velocities

 iter      E             dE          RMSdq      gap      omega  full diag
   1   -103.4713022 -0.103471E+03  0.673E-04    0.21       0.0  T
   2   -103.4713019  0.335071E-06  0.213E-03    0.21       5.9  T
   3   -103.4713021 -0.243853E-06  0.125E-03    0.21      10.0  T
   4   -103.4713022 -0.954317E-07  0.364E-04    0.21      34.3  T
   5   -103.4713022  0.262272E-07  0.577E-04    0.21      21.7  T
     SCC iter.                  ...        0 min,  0.049 sec
     gradient                   ...        0 min,  0.015 sec
 * total energy  :  -102.1256708 Eh     change    :  -0.4501703E-04 Eh
   gradient norm :     0.0551999 Eh/a0  converged?    E=F G=F D=T
   time step     :     0.1250000 fs     power     :   0.4767412E-08
   step length   :     0.0008136 a0     speed     :   0.1574382E-03

........................................................................
.............................. CYCLE   69 ..............................
........................................................................

 iter      E             dE          RMSdq      gap      omega  full diag
   1   -103.4712581 -0.103471E+03  0.133E-03    0.21       0.0  T
   2   -103.4712570  0.117192E-05  0.368E-03    0.21       3.4  T
   3   -103.4712578 -0.816432E-06  0.250E-03    0.21       5.0  T
   4   -103.4712580 -0.201518E-06  0.135E-03    0.21       9.2  T
   5   -103.4712582 -0.180782E-06  0.855E-04    0.21      14.6  T
   6   -103.4712582 -0.422592E-07  0.273E-04    0.21      45.7  T
     SCC iter.                  ...        0 min,  0.058 sec
     gradient                   ...        0 min,  0.013 sec
 * total energy  :  -102.1257598 Eh     change    :  -0.8903783E-04 Eh
   gradient norm :     0.0545342 Eh/a0  converged?    E=F G=F D=F
   time step     :     0.1250000 fs     power     :   0.9390708E-08
   step length   :     0.0016222 a0     speed     :   0.3139223E-03

........................................................................
.............................. CYCLE   70 ..............................
........................................................................

 iter      E             dE          RMSdq      gap      omega  full diag
   1   -103.4711936 -0.103471E+03  0.193E-03    0.21       0.0  T
   2   -103.4711919  0.166811E-05  0.462E-03    0.21       2.7  T
   3   -103.4711925 -0.523703E-06  0.426E-03    0.21       2.9  T
   4   -103.4711935 -0.106884E-05  0.135E-03    0.21       9.3  T
   5   -103.4711935  0.674113E-07  0.172E-03    0.21       7.3  T
   6   -103.4711937 -0.270134E-06  0.419E-04    0.21      29.8  T
   7   -103.4711938 -0.143892E-07  0.111E-04    0.21     112.6  T
     SCC iter.                  ...        0 min,  0.070 sec
     gradient                   ...        0 min,  0.013 sec
 * total energy  :  -102.1258907 Eh     change    :  -0.1308371E-03 Eh
   gradient norm :     0.0535558 Eh/a0  converged?    E=F G=F D=F
   time step     :     0.1250000 fs     power     :   0.1376116E-07
   step length   :     0.0024211 a0     speed     :   0.4685118E-03

........................................................................
.............................. CYCLE   71 ..............................
........................................................................

 iter      E             dE          RMSdq      gap      omega  full diag
   1   -103.4711104 -0.103471E+03  0.253E-03    0.21       0.0  T
   2   -103.4711078  0.255559E-05  0.564E-03    0.21       2.2  T
   3   -103.4711083 -0.472123E-06  0.570E-03    0.21       2.2  T
   4   -103.4711102 -0.188323E-05  0.192E-03    0.21       6.5  T
   5   -103.4711102 -0.303051E-07  0.214E-03    0.21       5.8  T
   6   -103.4711106 -0.391870E-06  0.535E-04    0.21      23.4  T
   7   -103.4711106 -0.218711E-07  0.159E-04    0.21      78.7  T
     SCC iter.                  ...        0 min,  0.068 sec
     gradient                   ...        0 min,  0.012 sec
 * total energy  :  -102.1260603 Eh     change    :  -0.1695732E-03 Eh
   gradient norm :     0.0522857 Eh/a0  converged?    E=F G=F D=F
   time step     :     0.1250000 fs     power     :   0.1778031E-07
   step length   :     0.0032055 a0     speed     :   0.6203013E-03

........................................................................
.............................. CYCLE   72 ..............................
........................................................................

 iter      E             dE          RMSdq      gap      omega  full diag
   1   -103.4710112 -0.103471E+03  0.312E-03    0.22       0.0  T
   2   -103.4710076  0.357241E-05  0.664E-03    0.21       1.9  T
   3   -103.4710079 -0.261972E-06  0.715E-03    0.21       1.7  T
   4   -103.4710109 -0.299938E-05  0.239E-03    0.22       5.2  T
   5   -103.4710110 -0.680449E-07  0.263E-03    0.21       4.7  T
   6   -103.4710116 -0.583218E-06  0.654E-04    0.21      19.1  T
   7   -103.4710116 -0.323886E-07  0.198E-04    0.21      63.1  T
     SCC iter.                  ...        0 min,  0.068 sec
     gradient                   ...        0 min,  0.015 sec
 * total energy  :  -102.1262647 Eh     change    :  -0.2044076E-03 Eh
   gradient norm :     0.0507550 Eh/a0  converged?    E=F G=F D=F
   time step     :     0.1250000 fs     power     :   0.2136503E-07
   step length   :     0.0039710 a0     speed     :   0.7684244E-03

........................................................................
.............................. CYCLE   73 ..............................
........................................................................

 iter      E             dE          RMSdq      gap      omega  full diag
   1   -103.4708997 -0.103471E+03  0.368E-03    0.22       0.0  T
   2   -103.4708952  0.449819E-05  0.739E-03    0.21       1.7  T
   3   -103.4708948  0.329976E-06  0.858E-03    0.22       1.5  T
   4   -103.4708992 -0.437965E-05  0.288E-03    0.22       4.3  T
   5   -103.4708994 -0.145349E-06  0.309E-03    0.21       4.0  T
   6   -103.4709001 -0.784967E-06  0.765E-04    0.22      16.4  T
   7   -103.4709002 -0.436178E-07  0.237E-04    0.22      52.7  T
     SCC iter.                  ...        0 min,  0.069 sec
     gradient                   ...        0 min,  0.013 sec
 * total energy  :  -102.1264993 Eh     change    :  -0.2346843E-03 Eh
   gradient norm :     0.0490031 Eh/a0  converged?    E=F G=F D=F
   time step     :     0.1250000 fs     power     :   0.2445163E-07
   step length   :     0.0047133 a0     speed     :   0.9120715E-03

........................................................................
.............................. CYCLE   74 ..............................
........................................................................

 iter      E             dE          RMSdq      gap      omega  full diag
   1   -103.4707670 -0.103471E+03  0.469E-03    0.22       0.0  T
   2   -103.4707605  0.644762E-05  0.875E-03    0.21       1.4  T
   3   -103.4707588  0.172096E-05  0.111E-02    0.22       1.1  T
   4   -103.4707662 -0.741281E-05  0.379E-03    0.22       3.3  T
   5   -103.4707665 -0.328136E-06  0.392E-03    0.22       3.2  T
   6   -103.4707678 -0.122909E-05  0.965E-04    0.22      13.0  T
   7   -103.4707678 -0.682549E-07  0.307E-04    0.22      40.7  T
   8   -103.4707678 -0.758389E-08  0.105E-04    0.22     119.0  T
     SCC iter.                  ...        0 min,  0.079 sec
     gradient                   ...        0 min,  0.014 sec
 * total energy  :  -102.1267884 Eh     change    :  -0.2890416E-03 Eh
   gradient norm :     0.0468638 Eh/a0  converged?    E=F G=F D=F
   time step     :     0.1375000 fs     power     :   0.2721986E-07
   step length   :     0.0060503 a0     speed     :   0.1064369E-02

........................................................................
.............................. CYCLE   75 ..............................
........................................................................

 iter      E             dE          RMSdq      gap      omega  full diag
   1   -103.4706171 -0.103471E+03  0.587E-03    0.22       0.0  T
   2   -103.4706085  0.864837E-05  0.998E-03    0.22       1.3  T
   3   -103.4706041  0.434893E-05  0.138E-02    0.22       1.0  T
   4   -103.4706159 -0.117778E-04  0.499E-03    0.22       2.5  T
   5   -103.4706165 -0.636813E-06  0.492E-03    0.22       2.5  T
   6   -103.4706184 -0.188404E-05  0.121E-03    0.22      10.4  T
   7   -103.4706185 -0.105521E-06  0.383E-04    0.22      32.6  T
   8   -103.4706185 -0.115162E-07  0.135E-04    0.22      92.8  T
     SCC iter.                  ...        0 min,  0.079 sec
     gradient                   ...        0 min,  0.014 sec
 * total energy  :  -102.1271352 Eh     change    :  -0.3467683E-03 Eh
   gradient norm :     0.0443439 Eh/a0  converged?    E=F G=F D=F
   time step     :     0.1512500 fs     power     :   0.2947649E-07
   step length   :     0.0076537 a0     speed     :   0.1224028E-02

........................................................................
.............................. CYCLE   76 ..............................
........................................................................

 iter      E             dE          RMSdq      gap      omega  full diag
   1   -103.4704603 -0.103470E+03  0.727E-03    0.22       0.0  T
   2   -103.4704490  0.112455E-04  0.111E-02    0.22       1.1  T
   3   -103.4704422  0.686958E-05  0.159E-02    0.22       1.0  T
   4   -103.4704581 -0.158833E-04  0.696E-03    0.22       1.8  T
   5   -103.4704596 -0.157103E-05  0.615E-03    0.22       2.0  T
   6   -103.4704624 -0.275594E-05  0.146E-03    0.22       8.6  T
   7   -103.4704625 -0.149793E-06  0.483E-04    0.22      25.9  T
   8   -103.4704626 -0.182834E-07  0.167E-04    0.22      74.9  T
     SCC iter.                  ...        0 min,  0.078 sec
     gradient                   ...        0 min,  0.014 sec
 * total energy  :  -102.1275402 Eh     change    :  -0.4050068E-03 Eh
   gradient norm :     0.0415118 Eh/a0  converged?    E=F G=F D=F
   time step     :     0.1663750 fs     power     :   0.3102401E-07
   step length   :     0.0095541 a0     speed     :   0.1389053E-02

........................................................................
.............................. CYCLE   77 ..............................
........................................................................

 iter      E             dE          RMSdq      gap      omega  full diag
   1   -103.4703171 -0.103470E+03  0.891E-03    0.22       0.0  T
   2   -103.4703022  0.148775E-04  0.123E-02    0.22       1.0  T
   3   -103.4702983  0.393993E-05  0.157E-02    0.22       1.0  T
   4   -103.4703123 -0.139782E-04  0.105E-02    0.22       1.2  T
   5   -103.4703160 -0.374772E-05  0.818E-03    0.22       1.5  T
   6   -103.4703205 -0.445938E-05  0.172E-03    0.22       7.2  T
   7   -103.4703207 -0.199513E-06  0.603E-04    0.22      20.7  T
   8   -103.4703207 -0.284521E-07  0.204E-04    0.22      61.4  T
     SCC iter.                  ...        0 min,  0.072 sec
     gradient                   ...        0 min,  0.014 sec
 * total energy  :  -102.1280003 Eh     change    :  -0.4601007E-03 Eh
   gradient norm :     0.0385383 Eh/a0  converged?    E=F G=F D=F
   time step     :     0.1830125 fs     power     :   0.3170709E-07
   step length   :     0.0117772 a0     speed     :   0.1556599E-02

........................................................................
.............................. CYCLE   78 ..............................
........................................................................

 iter      E             dE          RMSdq      gap      omega  full diag
   1   -103.4702250 -0.103470E+03  0.108E-02    0.22       0.0  T
   2   -103.4702027  0.223026E-04  0.147E-02    0.22       1.0  T
   3   -103.4702125 -0.984893E-05  0.130E-02    0.23       1.0  T
   4   -103.4702243 -0.117546E-04  0.947E-03    0.22       1.3  T
   5   -103.4702104  0.138328E-04  0.172E-02    0.22       1.0  T
   6   -103.4702304 -0.199898E-04  0.197E-03    0.22       6.4  T
   7   -103.4702307 -0.239467E-06  0.745E-04    0.22      16.8  T
   8   -103.4702307 -0.434451E-07  0.244E-04    0.22      51.2  T
     SCC iter.                  ...        0 min,  0.072 sec
     gradient                   ...        0 min,  0.012 sec
 * total energy  :  -102.1285088 Eh     change    :  -0.5085504E-03 Eh
   gradient norm :     0.0357435 Eh/a0  converged?    E=F G=F D=F
   time step     :     0.2013138 fs     power     :   0.3148916E-07
   step length   :     0.0143388 a0     speed     :   0.1722872E-02

........................................................................
.............................. CYCLE   79 ..............................
........................................................................

 iter      E             dE          RMSdq      gap      omega  full diag
   1   -103.4702464 -0.103470E+03  0.130E-02    0.23       0.0  T
   2   -103.4702052  0.411752E-04  0.202E-02    0.22       1.0  T
   3   -103.4702334 -0.281615E-04  0.167E-02    0.23       1.0  T
   4   -103.4702421 -0.871403E-05  0.143E-02    0.22       1.0  T
   5   -103.4702387  0.335155E-05  0.140E-02    0.22       1.0  T
   6   -103.4702551 -0.163960E-04  0.272E-03    0.22       4.6  T
   7   -103.4702556 -0.479634E-06  0.889E-04    0.22      14.1  T
   8   -103.4702557 -0.612305E-07  0.296E-04    0.22      42.3  T
     SCC iter.                  ...        0 min,  0.084 sec
     gradient                   ...        0 min,  0.012 sec
 * total energy  :  -102.1290579 Eh     change    :  -0.5490515E-03 Eh
   gradient norm :     0.0336087 Eh/a0  converged?    E=F G=F D=F
   time step     :     0.2214451 fs     power     :   0.3055835E-07
   step length   :     0.0172403 a0     speed     :   0.1883184E-02

........................................................................
.............................. CYCLE   80 ..............................
........................................................................

 iter      E             dE          RMSdq      gap      omega  full diag
   1   -103.4704773 -0.103470E+03  0.157E-02    0.23       0.0  T
   2   -103.4703888  0.885227E-04  0.306E-02    0.22       1.0  T
   3   -103.4704538 -0.649782E-04  0.242E-02    0.23       1.0  T
   4   -103.4704575 -0.369253E-05  0.208E-02    0.23       1.0  T
   5   -103.4704846 -0.271339E-04  0.972E-03    0.22       1.3  T
   6   -103.4704920 -0.740435E-05  0.289E-03    0.23       4.3  T
   7   -103.4704925 -0.490763E-06  0.106E-03    0.23      11.8  T
   8   -103.4704926 -0.859107E-07  0.355E-04    0.23      35.2  T
   9   -103.4704926 -0.905095E-08  0.140E-04    0.23      89.0  T
     SCC iter.                  ...        0 min,  0.101 sec
     gradient                   ...        0 min,  0.015 sec
 * total energy  :  -102.1296437 Eh     change    :  -0.5858033E-03 Eh
   gradient norm :     0.0326511 Eh/a0  converged?    E=F G=F D=F
   time step     :     0.2435896 fs     power     :   0.2942839E-07
   step length   :     0.0204695 a0     speed     :   0.2032659E-02

........................................................................
.............................. CYCLE   81 ..............................
........................................................................

 iter      E             dE          RMSdq      gap      omega  full diag
   1   -103.4710502 -0.103471E+03  0.191E-02    0.23       0.0  T
   2   -103.4708523  0.197970E-03  0.471E-02    0.22       1.0  T
   3   -103.4710175 -0.165243E-03  0.297E-02    0.23       1.0  T
   4   -103.4710269 -0.942161E-05  0.235E-02    0.23       1.0  T
   5   -103.4710689 -0.420140E-04  0.939E-03    0.23       1.3  T
   6   -103.4710749 -0.599734E-05  0.321E-03    0.23       3.9  T
   7   -103.4710755 -0.555712E-06  0.124E-03    0.23      10.1  T
   8   -103.4710756 -0.115406E-06  0.422E-04    0.23      29.6  T
   9   -103.4710756 -0.133414E-07  0.161E-04    0.23      77.6  T
     SCC iter.                  ...        0 min,  0.102 sec
     gradient                   ...        0 min,  0.018 sec
 * total energy  :  -102.1302756 Eh     change    :  -0.6319318E-03 Eh
   gradient norm :     0.0330979 Eh/a0  converged?    E=F G=F D=F
   time step     :     0.2679486 fs     power     :   0.2893226E-07
   step length   :     0.0240243 a0     speed     :   0.2168770E-02

........................................................................
.............................. CYCLE   82 ..............................
........................................................................

 iter      E             dE          RMSdq      gap      omega  full diag
   1   -103.4721288 -0.103472E+03  0.233E-02    0.24       0.0  T
   2   -103.4717205  0.408390E-03  0.687E-02    0.22       1.0  T
   3   -103.4720889 -0.368449E-03  0.346E-02    0.23       1.0  T
   4   -103.4721075 -0.185685E-04  0.264E-02    0.24       1.0  T
   5   -103.4721645 -0.570692E-04  0.967E-03    0.23       1.3  T
   6   -103.4721700 -0.550061E-05  0.360E-03    0.23       3.5  T
   7   -103.4721707 -0.652185E-06  0.141E-03    0.23       8.9  T
   8   -103.4721708 -0.144084E-06  0.496E-04    0.23      25.2  T
   9   -103.4721709 -0.192044E-07  0.183E-04    0.23      68.4  T
     SCC iter.                  ...        0 min,  0.081 sec
     gradient                   ...        0 min,  0.012 sec
 * total energy  :  -102.1309858 Eh     change    :  -0.7101528E-03 Eh
   gradient norm :     0.0345855 Eh/a0  converged?    E=F G=F D=F
   time step     :     0.2947435 fs     power     :   0.3000374E-07
   step length   :     0.0279782 a0     speed     :   0.2296099E-02

........................................................................
.............................. CYCLE   83 ..............................
........................................................................

 iter      E             dE          RMSdq      gap      omega  full diag
   1   -103.4738964 -0.103474E+03  0.288E-02    0.24       0.0  T
   2   -103.4731254  0.770992E-03  0.951E-02    0.22       1.0  T
   3   -103.4738472 -0.721773E-03  0.406E-02    0.23       1.0  T
   4   -103.4738823 -0.351793E-04  0.299E-02    0.24       1.0  T
   5   -103.4739582 -0.758956E-04  0.104E-02    0.23       1.2  T
   6   -103.4739638 -0.558738E-05  0.403E-03    0.23       3.1  T
   7   -103.4739646 -0.781397E-06  0.157E-03    0.23       8.0  T
   8   -103.4739648 -0.173558E-06  0.573E-04    0.23      21.8  T
   9   -103.4739648 -0.261463E-07  0.207E-04    0.23      60.4  T
     SCC iter.                  ...        0 min,  0.081 sec
     gradient                   ...        0 min,  0.013 sec
 * total energy  :  -102.1318329 Eh     change    :  -0.8471036E-03 Eh
   gradient norm :     0.0362440 Eh/a0  converged?    E=F G=F D=F
   time step     :     0.3242178 fs     power     :   0.3324900E-07
   step length   :     0.0325623 a0     speed     :   0.2429369E-02

........................................................................
.............................. CYCLE   84 ..............................
........................................................................

 iter      E             dE          RMSdq      gap      omega  full diag
   1   -103.4765420 -0.103477E+03  0.357E-02    0.25       0.0  T
   2   -103.4752043  0.133768E-02  0.126E-01    0.21       1.0  T
   3   -103.4764791 -0.127475E-02  0.484E-02    0.23       1.0  T
   4   -103.4765426 -0.635001E-04  0.342E-02    0.25       1.0  T
   5   -103.4766430 -0.100426E-03  0.119E-02    0.24       1.1  T
   6   -103.4766498 -0.682423E-05  0.455E-03    0.24       2.7  T
   7   -103.4766508 -0.967889E-06  0.173E-03    0.24       7.2  T
   8   -103.4766510 -0.206872E-06  0.647E-04    0.24      19.3  T
   9   -103.4766510 -0.328644E-07  0.235E-04    0.24      53.1  T
     SCC iter.                  ...        0 min,  0.095 sec
     gradient                   ...        0 min,  0.018 sec
 * total energy  :  -102.1328942 Eh     change    :  -0.1061346E-02 Eh
   gradient norm :     0.0370811 Eh/a0  converged?    E=F G=F D=F
   time step     :     0.3566396 fs     power     :   0.3851862E-07
   step length   :     0.0381802 a0     speed     :   0.2589549E-02

........................................................................
.............................. CYCLE   85 ..............................
........................................................................

 iter      E             dE          RMSdq      gap      omega  full diag
   1   -103.4802393 -0.103480E+03  0.444E-02    0.25       0.0  T
   2   -103.4780798  0.215953E-02  0.160E-01    0.21       1.0  T
   3   -103.4801554 -0.207561E-02  0.585E-02    0.23       1.0  T
   4   -103.4802659 -0.110448E-03  0.393E-02    0.25       1.0  T
   5   -103.4803970 -0.131141E-03  0.144E-02    0.24       1.0  T
   6   -103.4804074 -0.103848E-04  0.519E-03    0.24       2.4  T
   7   -103.4804086 -0.125748E-05  0.190E-03    0.24       6.6  T
   8   -103.4804089 -0.250283E-06  0.711E-04    0.24      17.6  T
   9   -103.4804089 -0.375006E-07  0.269E-04    0.24      46.4  T
     SCC iter.                  ...        0 min,  0.099 sec
     gradient                   ...        0 min,  0.011 sec
 * total energy  :  -102.1342427 Eh     change    :  -0.1348459E-02 Eh
   gradient norm :     0.0364028 Eh/a0  converged?    E=F G=F D=F
   time step     :     0.3923035 fs     power     :   0.4469915E-07
   step length   :     0.0453282 a0     speed     :   0.2794870E-02

........................................................................
.............................. CYCLE   86 ..............................
........................................................................

 iter      E             dE          RMSdq      gap      omega  full diag
   1   -103.4851039 -0.103485E+03  0.550E-02    0.26       0.0  T
   2   -103.4818265  0.327745E-02  0.199E-01    0.21       1.0  T
   3   -103.4849863 -0.315985E-02  0.711E-02    0.23       1.0  T
   4   -103.4851765 -0.190130E-03  0.449E-02    0.25       1.0  T
   5   -103.4853404 -0.163968E-03  0.182E-02    0.24       1.0  T
   6   -103.4853590 -0.185614E-04  0.603E-03    0.24       2.1  T
   7   -103.4853607 -0.172862E-05  0.210E-03    0.24       6.0  T
   8   -103.4853610 -0.310609E-06  0.770E-04    0.24      16.2  T
   9   -103.4853611 -0.399736E-07  0.303E-04    0.24      41.2  T
     SCC iter.                  ...        0 min,  0.081 sec
     gradient                   ...        0 min,  0.012 sec
 * total energy  :  -102.1359148 Eh     change    :  -0.1672168E-02 Eh
   gradient norm :     0.0342703 Eh/a0  converged?    E=F G=F D=F
   time step     :     0.4315339 fs     power     :   0.4999807E-07
   step length   :     0.0544549 a0     speed     :   0.3052369E-02

........................................................................
.............................. CYCLE   87 ..............................
........................................................................

 iter      E             dE          RMSdq      gap      omega  full diag
   1   -103.4911232 -0.103491E+03  0.674E-02    0.26       0.0  T
   2   -103.4864237  0.469946E-02  0.240E-01    0.20       1.0  T
   3   -103.4909509 -0.452719E-02  0.861E-02    0.23       1.0  T
   4   -103.4912757 -0.324847E-03  0.502E-02    0.26       1.0  T
   5   -103.4914628 -0.187042E-03  0.235E-02    0.24       1.0  T
   6   -103.4914983 -0.355042E-04  0.713E-03    0.24       1.8  T
   7   -103.4915008 -0.247953E-05  0.232E-03    0.24       5.4  T
   8   -103.4915012 -0.391871E-06  0.853E-04    0.24      14.7  T
   9   -103.4915012 -0.457570E-07  0.317E-04    0.24      39.4  T
     SCC iter.                  ...        0 min,  0.082 sec
     gradient                   ...        0 min,  0.014 sec
 * total energy  :  -102.1378941 Eh     change    :  -0.1979255E-02 Eh
   gradient norm :     0.0319014 Eh/a0  converged?    E=F G=F D=F
   time step     :     0.4746873 fs     power     :   0.5301356E-07
   step length   :     0.0658183 a0     speed     :   0.3353930E-02

........................................................................
.............................. CYCLE   88 ..............................
........................................................................

 iter      E             dE          RMSdq      gap      omega  full diag
   1   -103.4980710 -0.103498E+03  0.810E-02    0.27       0.0  T
   2   -103.4917246  0.634648E-02  0.283E-01    0.20       1.0  T
   3   -103.4978169 -0.609232E-02  0.103E-01    0.23       1.0  T
   4   -103.4983490 -0.532137E-03  0.545E-02    0.26       1.0  T
   5   -103.4985319 -0.182898E-03  0.300E-02    0.23       1.0  T
   6   -103.4985987 -0.668412E-04  0.843E-03    0.24       1.5  T
   7   -103.4986023 -0.356178E-05  0.257E-03    0.24       4.9  T
   8   -103.4986028 -0.494670E-06  0.983E-04    0.24      12.7  T
   9   -103.4986029 -0.619759E-07  0.314E-04    0.24      39.8  T
     SCC iter.                  ...        0 min,  0.086 sec
     gradient                   ...        0 min,  0.013 sec
 * total energy  :  -102.1401456 Eh     change    :  -0.2251474E-02 Eh
   gradient norm :     0.0310835 Eh/a0  converged?    E=F G=F D=F
   time step     :     0.5221560 fs     power     :   0.5422881E-07
   step length   :     0.0793992 a0     speed     :   0.3678163E-02

........................................................................
.............................. CYCLE   89 ..............................
........................................................................

 iter      E             dE          RMSdq      gap      omega  full diag
   1   -103.5054886 -0.103505E+03  0.943E-02    0.27       0.0  T
   2   -103.4975044  0.798421E-02  0.322E-01    0.19       1.0  T
   3   -103.5051294 -0.762498E-02  0.119E-01    0.22       1.0  T
   4   -103.5059270 -0.797685E-03  0.574E-02    0.26       1.0  T
   5   -103.5060689 -0.141832E-03  0.367E-02    0.23       1.0  T
   6   -103.5061827 -0.113842E-03  0.981E-03    0.24       1.3  T
   7   -103.5061877 -0.497932E-05  0.285E-03    0.24       4.4  T
   8   -103.5061883 -0.619515E-06  0.112E-03    0.24      11.1  T
   9   -103.5061884 -0.819681E-07  0.369E-04    0.24      33.9  T
  10   -103.5061884 -0.149383E-08  0.205E-04    0.24      60.9  T
     SCC iter.                  ...        0 min,  0.097 sec
     gradient                   ...        0 min,  0.012 sec
 * total energy  :  -102.1427000 Eh     change    :  -0.2554418E-02 Eh
   gradient norm :     0.0319852 Eh/a0  converged?    E=F G=F D=F
   time step     :     0.5743716 fs     power     :   0.5604373E-07
   step length   :     0.0950256 a0     speed     :   0.4001866E-02

........................................................................
.............................. CYCLE   90 ..............................
........................................................................

 iter      E             dE          RMSdq      gap      omega  full diag
   1   -103.5128115 -0.103513E+03  0.106E-01    0.27       0.0  T
   2   -103.5034056  0.940598E-02  0.354E-01    0.19       1.0  T
   3   -103.5123449 -0.893935E-02  0.132E-01    0.22       1.0  T
   4   -103.5134135 -0.106855E-02  0.584E-02    0.26       1.0  T
   5   -103.5134913 -0.778258E-04  0.418E-02    0.22       1.0  T
   6   -103.5136532 -0.161906E-03  0.110E-02    0.24       1.1  T
   7   -103.5136600 -0.682549E-05  0.313E-03    0.24       4.0  T
   8   -103.5136608 -0.752523E-06  0.120E-03    0.24      10.5  T
   9   -103.5136609 -0.890929E-07  0.446E-04    0.24      28.1  T
  10   -103.5136609 -0.458932E-08  0.237E-04    0.24      52.8  T
     SCC iter.                  ...        0 min,  0.104 sec
     gradient                   ...        0 min,  0.012 sec
 * total energy  :  -102.1456849 Eh     change    :  -0.2984940E-02 Eh
   gradient norm :     0.0325727 Eh/a0  converged?    E=F G=F D=F
   time step     :     0.6318088 fs     power     :   0.5988905E-07
   step length   :     0.1129878 a0     speed     :   0.4325746E-02

........................................................................
.............................. CYCLE   91 ..............................
........................................................................

 iter      E             dE          RMSdq      gap      omega  full diag
   1   -103.5195104 -0.103520E+03  0.116E-01    0.27       0.0  T
   2   -103.5090070  0.105034E-01  0.379E-01    0.19       1.0  T
   3   -103.5189543 -0.994732E-02  0.142E-01    0.21       1.0  T
   4   -103.5202495 -0.129524E-02  0.576E-02    0.26       1.0  T
   5   -103.5202754 -0.258748E-04  0.427E-02    0.21       1.0  T
   6   -103.5204549 -0.179485E-03  0.119E-02    0.24       1.0  T
   7   -103.5204639 -0.900714E-05  0.332E-03    0.24       3.8  T
   8   -103.5204647 -0.826621E-06  0.119E-03    0.24      10.5  T
   9   -103.5204648 -0.801130E-07  0.488E-04    0.24      25.6  T
  10   -103.5204648 -0.534716E-08  0.263E-04    0.24      47.6  T
     SCC iter.                  ...        0 min,  0.099 sec
     gradient                   ...        0 min,  0.012 sec
 * total energy  :  -102.1492043 Eh     change    :  -0.3519361E-02 Eh
   gradient norm :     0.0310730 Eh/a0  converged?    E=F G=F D=F
   time step     :     0.6949897 fs     power     :   0.6353111E-07
   step length   :     0.1343068 a0     speed     :   0.4674494E-02

........................................................................
.............................. CYCLE   92 ..............................
........................................................................

 iter      E             dE          RMSdq      gap      omega  full diag
   1   -103.5250996 -0.103525E+03  0.123E-01    0.27       0.0  T
   2   -103.5138031  0.112965E-01  0.396E-01    0.20       1.0  T
   3   -103.5245087 -0.107057E-01  0.147E-01    0.21       1.0  T
   4   -103.5259366 -0.142782E-02  0.549E-02    0.25       1.0  T
   5   -103.5259502 -0.136537E-04  0.381E-02    0.21       1.0  T
   6   -103.5260956 -0.145393E-03  0.121E-02    0.24       1.0  T
   7   -103.5261063 -0.107413E-04  0.327E-03    0.24       3.8  T
   8   -103.5261071 -0.732292E-06  0.114E-03    0.24      11.0  T
   9   -103.5261071 -0.631616E-07  0.478E-04    0.24      26.2  T
  10   -103.5261071 -0.339412E-08  0.273E-04    0.24      45.7  T
     SCC iter.                  ...        0 min,  0.124 sec
     gradient                   ...        0 min,  0.019 sec
 * total energy  :  -102.1531627 Eh     change    :  -0.3958458E-02 Eh
   gradient norm :     0.0287769 Eh/a0  converged?    E=F G=F D=F
   time step     :     0.7644886 fs     power     :   0.6298713E-07
   step length   :     0.1597996 a0     speed     :   0.5056147E-02

........................................................................
.............................. CYCLE   93 ..............................
........................................................................

 iter      E             dE          RMSdq      gap      omega  full diag
   1   -103.5292072 -0.103529E+03  0.128E-01    0.27       0.0  T
   2   -103.5177589  0.114483E-01  0.400E-01    0.21       1.0  T
   3   -103.5286417 -0.108828E-01  0.147E-01    0.21       1.0  T
   4   -103.5300765 -0.143474E-02  0.521E-02    0.25       1.0  T
   5   -103.5301032 -0.267832E-04  0.308E-02    0.21       1.0  T
   6   -103.5301956 -0.924086E-04  0.113E-02    0.24       1.1  T
   7   -103.5302063 -0.106192E-04  0.294E-03    0.24       4.2  T
   8   -103.5302068 -0.499690E-06  0.104E-03    0.24      12.1  T
   9   -103.5302068 -0.451804E-07  0.445E-04    0.24      28.1  T
  10   -103.5302068 -0.271747E-08  0.239E-04    0.24      52.4  T
     SCC iter.                  ...        0 min,  0.105 sec
     gradient                   ...        0 min,  0.013 sec
 * total energy  :  -102.1573697 Eh     change    :  -0.4206968E-02 Eh
   gradient norm :     0.0288066 Eh/a0  converged?    E=F G=F D=F
   time step     :     0.8409375 fs     power     :   0.5948441E-07
   step length   :     0.1889048 a0     speed     :   0.5433684E-02

........................................................................
.............................. CYCLE   94 ..............................
........................................................................

 iter      E             dE          RMSdq      gap      omega  full diag
   1   -103.5318095 -0.103532E+03  0.129E-01    0.26       0.0  T
   2   -103.5213332  0.104764E-01  0.385E-01    0.21       1.0  T
   3   -103.5312640 -0.993087E-02  0.144E-01    0.21       1.0  T
   4   -103.5326030 -0.133892E-02  0.529E-02    0.25       1.0  T
   5   -103.5326571 -0.541674E-04  0.246E-02    0.22       1.0  T
   6   -103.5327145 -0.574101E-04  0.944E-03    0.24       1.3  T
   7   -103.5327226 -0.803430E-05  0.244E-03    0.24       5.1  T
   8   -103.5327228 -0.281611E-06  0.931E-04    0.24      13.4  T
   9   -103.5327229 -0.281506E-07  0.461E-04    0.24      27.1  T
     SCC iter.                  ...        0 min,  0.085 sec
     gradient                   ...        0 min,  0.013 sec
 * total energy  :  -102.1618702 Eh     change    :  -0.4500484E-02 Eh
   gradient norm :     0.0278529 Eh/a0  converged?    E=F G=F D=F
   time step     :     0.9250312 fs     power     :   0.5780672E-07
   step length   :     0.2204887 a0     speed     :   0.5765607E-02

........................................................................
.............................. CYCLE   95 ..............................
........................................................................

 iter      E             dE          RMSdq      gap      omega  full diag
   1   -103.5333696 -0.103533E+03  0.128E-01    0.26       0.0  T
   2   -103.5243613  0.900834E-02  0.359E-01    0.21       1.0  T
   3   -103.5328809 -0.851960E-02  0.135E-01    0.22       1.0  T
   4   -103.5339796 -0.109866E-02  0.590E-02    0.25       1.0  T
   5   -103.5340941 -0.114489E-03  0.194E-02    0.22       1.0  T
   6   -103.5341271 -0.330407E-04  0.764E-03    0.24       1.6  T
   7   -103.5341326 -0.547212E-05  0.204E-03    0.24       6.1  T
   8   -103.5341327 -0.163916E-06  0.902E-04    0.24      13.9  T
   9   -103.5341328 -0.201497E-07  0.497E-04    0.24      25.2  T
     SCC iter.                  ...        0 min,  0.087 sec
     gradient                   ...        0 min,  0.015 sec
 * total energy  :  -102.1666180 Eh     change    :  -0.4747790E-02 Eh
   gradient norm :     0.0256480 Eh/a0  converged?    E=F G=F D=F
   time step     :     1.0175344 fs     power     :   0.5366412E-07
   step length   :     0.2559623 a0     speed     :   0.6084741E-02
 * RMSD in coord.:     0.1846325 a0     energy gain  -0.4099219E-01 Eh

........................................................................
.............................. CYCLE   96 ..............................
........................................................................

 iter      E             dE          RMSdq      gap      omega  full diag
   1   -103.5344456 -0.103534E+03  0.276E-02    0.24       0.0  T
   2   -103.5340214  0.424160E-03  0.778E-02    0.23       1.0  T
   3   -103.5344326 -0.411219E-03  0.262E-02    0.23       1.0  T
   4   -103.5344683 -0.357224E-04  0.142E-02    0.24       1.0  T
   5   -103.5344768 -0.849179E-05  0.359E-03    0.23       3.5  T
   6   -103.5344779 -0.106043E-05  0.138E-03    0.24       9.1  T
   7   -103.5344781 -0.174230E-06  0.422E-04    0.24      29.6  T
   8   -103.5344781 -0.724012E-08  0.196E-04    0.24      63.7  T
     SCC iter.                  ...        0 min,  0.075 sec
     gradient                   ...        0 min,  0.013 sec
 * total energy  :  -102.1676975 Eh     change    :  -0.1079540E-02 Eh
   gradient norm :     0.0254055 Eh/a0  converged?    E=F G=F D=F
   time step     :     0.2500000 fs     power     :   0.5568825E-07
   step length   :     0.0617822 a0     speed     :   0.5977757E-02

........................................................................
.............................. CYCLE   97 ..............................
........................................................................

 iter      E             dE          RMSdq      gap      omega  full diag
   1   -103.5350007 -0.103535E+03  0.255E-02    0.24       0.0  T
   2   -103.5346705  0.330216E-03  0.689E-02    0.23       1.0  T
   3   -103.5349907 -0.320292E-03  0.231E-02    0.23       1.0  T
   4   -103.5350145 -0.237535E-04  0.144E-02    0.24       1.0  T
   5   -103.5350244 -0.988540E-05  0.304E-03    0.23       4.1  T
   6   -103.5350251 -0.701775E-06  0.120E-03    0.24      10.4  T
   7   -103.5350252 -0.135131E-06  0.396E-04    0.24      31.6  T
   8   -103.5350252 -0.712906E-08  0.184E-04    0.24      67.9  T
     SCC iter.                  ...        0 min,  0.075 sec
     gradient                   ...        0 min,  0.012 sec
 * total energy  :  -102.1688072 Eh     change    :  -0.1109668E-02 Eh
   gradient norm :     0.0243935 Eh/a0  converged?    E=F G=F D=F
   time step     :     0.2500000 fs     power     :   0.5733599E-07
   step length   :     0.0609959 a0     speed     :   0.5901685E-02

........................................................................
.............................. CYCLE   98 ..............................
........................................................................

 iter      E             dE          RMSdq      gap      omega  full diag
   1   -103.5357203 -0.103536E+03  0.243E-02    0.24       0.0  T
   2   -103.5354537  0.266554E-03  0.621E-02    0.23       1.0  T
   3   -103.5357109 -0.257158E-03  0.214E-02    0.23       1.0  T
   4   -103.5357271 -0.162194E-04  0.150E-02    0.24       1.0  T
   5   -103.5357388 -0.117440E-04  0.263E-03    0.23       4.7  T
   6   -103.5357393 -0.489627E-06  0.108E-03    0.24      11.6  T
   7   -103.5357394 -0.109527E-06  0.384E-04    0.23      32.6  T
   8   -103.5357394 -0.723105E-08  0.183E-04    0.24      68.3  T
     SCC iter.                  ...        0 min,  0.099 sec
     gradient                   ...        0 min,  0.016 sec
 * total energy  :  -102.1699303 Eh     change    :  -0.1123106E-02 Eh
   gradient norm :     0.0230634 Eh/a0  converged?    E=F G=F D=F
   time step     :     0.2500000 fs     power     :   0.5787222E-07
   step length   :     0.0605841 a0     speed     :   0.5861837E-02

........................................................................
.............................. CYCLE   99 ..............................
........................................................................

 iter      E             dE          RMSdq      gap      omega  full diag
   1   -103.5365496 -0.103537E+03  0.239E-02    0.24       0.0  T
   2   -103.5363313  0.218320E-03  0.566E-02    0.23       1.0  T
   3   -103.5365384 -0.207094E-03  0.209E-02    0.23       1.0  T
   4   -103.5365510 -0.125871E-04  0.156E-02    0.24       1.0  T
   5   -103.5365646 -0.136605E-04  0.235E-03    0.23       5.3  T
   6   -103.5365650 -0.377504E-06  0.100E-03    0.24      12.5  T
   7   -103.5365651 -0.933149E-07  0.371E-04    0.23      33.7  T
   8   -103.5365651 -0.697864E-08  0.183E-04    0.23      68.2  T
     SCC iter.                  ...        0 min,  0.089 sec
     gradient                   ...        0 min,  0.013 sec
 * total energy  :  -102.1710473 Eh     change    :  -0.1117034E-02 Eh
   gradient norm :     0.0220317 Eh/a0  converged?    E=F G=F D=F
   time step     :     0.2500000 fs     power     :   0.5742517E-07
   step length   :     0.0604856 a0     speed     :   0.5852303E-02

........................................................................
.............................. CYCLE  100 ..............................
........................................................................

 iter      E             dE          RMSdq      gap      omega  full diag
   1   -103.5374294 -0.103537E+03  0.236E-02    0.24       0.0  T
   2   -103.5372511  0.178287E-03  0.515E-02    0.23       1.0  T
   3   -103.5374145 -0.163378E-03  0.213E-02    0.23       1.0  T
   4   -103.5374268 -0.122899E-04  0.161E-02    0.24       1.0  T
   5   -103.5374419 -0.151278E-04  0.217E-03    0.23       5.8  T
   6   -103.5374422 -0.331720E-06  0.952E-04    0.23      13.1  T
   7   -103.5374423 -0.845333E-07  0.351E-04    0.23      35.6  T
     SCC iter.                  ...        0 min,  0.075 sec
     gradient                   ...        0 min,  0.010 sec
 * total energy  :  -102.1721492 Eh     change    :  -0.1101872E-02 Eh
   gradient norm :     0.0215070 Eh/a0  converged?    E=F G=F D=F
   time step     :     0.2500000 fs     power     :   0.5670628E-07
   step length   :     0.0605476 a0     speed     :   0.5858310E-02

........................................................................
.............................. CYCLE  101 ..............................
........................................................................

 iter      E             dE          RMSdq      gap      omega  full diag
   1   -103.5383995 -0.103538E+03  0.255E-02    0.24       0.0  T
   2   -103.5382340  0.165538E-03  0.502E-02    0.23       1.0  T
   3   -103.5383729 -0.138878E-03  0.250E-02    0.23       1.0  T
   4   -103.5383924 -0.195397E-04  0.182E-02    0.24       1.0  T
   5   -103.5384121 -0.196972E-04  0.230E-03    0.23       5.4  T
   6   -103.5384125 -0.407936E-06  0.100E-03    0.23      12.5  T
   7   -103.5384126 -0.932371E-07  0.362E-04    0.23      34.5  T
   8   -103.5384126 -0.588891E-08  0.193E-04    0.23      64.7  T
     SCC iter.                  ...        0 min,  0.069 sec
     gradient                   ...        0 min,  0.012 sec
 * total energy  :  -102.1733472 Eh     change    :  -0.1198007E-02 Eh
   gradient norm :     0.0211577 Eh/a0  converged?    E=F G=F D=F
   time step     :     0.2750000 fs     power     :   0.5608510E-07
   step length   :     0.0668216 a0     speed     :   0.5877589E-02

........................................................................
.............................. CYCLE  102 ..............................
........................................................................

 iter      E             dE          RMSdq      gap      omega  full diag
   1   -103.5394483 -0.103539E+03  0.277E-02    0.23       0.0  T
   2   -103.5392982  0.150045E-03  0.486E-02    0.23       1.0  T
   3   -103.5394020 -0.103799E-03  0.300E-02    0.23       1.0  T
   4   -103.5394361 -0.340770E-04  0.203E-02    0.24       1.0  T
   5   -103.5394612 -0.250690E-04  0.249E-03    0.23       5.0  T
   6   -103.5394617 -0.513827E-06  0.110E-03    0.23      11.3  T
   7   -103.5394618 -0.112522E-06  0.370E-04    0.23      33.8  T
   8   -103.5394618 -0.504237E-08  0.206E-04    0.23      60.6  T
     SCC iter.                  ...        0 min,  0.069 sec
     gradient                   ...        0 min,  0.012 sec
 * total energy  :  -102.1746529 Eh     change    :  -0.1305657E-02 Eh
   gradient norm :     0.0205845 Eh/a0  converged?    E=F G=F D=F
   time step     :     0.3025000 fs     power     :   0.5557850E-07
   step length   :     0.0738833 a0     speed     :   0.5907938E-02

........................................................................
.............................. CYCLE  103 ..............................
........................................................................

 iter      E             dE          RMSdq      gap      omega  full diag
   1   -103.5406089 -0.103541E+03  0.300E-02    0.23       0.0  T
   2   -103.5404967  0.112166E-03  0.437E-02    0.23       1.0  T
   3   -103.5405183 -0.215289E-04  0.386E-02    0.23       1.0  T
   4   -103.5405874 -0.691088E-04  0.233E-02    0.24       1.0  T
   5   -103.5406215 -0.341189E-04  0.280E-03    0.23       4.5  T
   6   -103.5406222 -0.691512E-06  0.118E-03    0.23      10.6  T
   7   -103.5406223 -0.122301E-06  0.414E-04    0.23      30.2  T
   8   -103.5406223 -0.593873E-08  0.225E-04    0.23      55.6  T
     SCC iter.                  ...        0 min,  0.068 sec
     gradient                   ...        0 min,  0.010 sec
 * total energy  :  -102.1760722 Eh     change    :  -0.1419384E-02 Eh
   gradient norm :     0.0196599 Eh/a0  converged?    E=F G=F D=F
   time step     :     0.3327500 fs     power     :   0.5477983E-07
   step length   :     0.0819131 a0     speed     :   0.5954573E-02

........................................................................
.............................. CYCLE  104 ..............................
........................................................................

 iter      E             dE          RMSdq      gap      omega  full diag
   1   -103.5419703 -0.103542E+03  0.327E-02    0.23       0.0  T
   2   -103.5419078  0.624252E-04  0.360E-02    0.22       1.0  T
   3   -103.5418041  0.103714E-03  0.496E-02    0.23       1.0  T
   4   -103.5419262 -0.122118E-03  0.290E-02    0.24       1.0  T
   5   -103.5419820 -0.557828E-04  0.324E-03    0.23       3.9  T
   6   -103.5419830 -0.968395E-06  0.123E-03    0.23      10.2  T
   7   -103.5419831 -0.122511E-06  0.499E-04    0.23      25.0  T
   8   -103.5419831 -0.959183E-08  0.244E-04    0.23      51.2  T
     SCC iter.                  ...        0 min,  0.091 sec
     gradient                   ...        0 min,  0.017 sec
 * total energy  :  -102.1776003 Eh     change    :  -0.1528056E-02 Eh
   gradient norm :     0.0185967 Eh/a0  converged?    E=F G=F D=F
   time step     :     0.3660250 fs     power     :   0.5333284E-07
   step length   :     0.0911139 a0     speed     :   0.6021281E-02

........................................................................
.............................. CYCLE  105 ..............................
........................................................................

 iter      E             dE          RMSdq      gap      omega  full diag
   1   -103.5436523 -0.103544E+03  0.360E-02    0.24       0.0  T
   2   -103.5436300  0.222579E-04  0.286E-02    0.22       1.0  T
   3   -103.5435258  0.104191E-03  0.437E-02    0.24       1.0  T
   4   -103.5434991  0.267172E-04  0.477E-02    0.24       1.0  T
   5   -103.5436633 -0.164178E-03  0.393E-03    0.23       3.2  T
   6   -103.5436648 -0.146404E-05  0.132E-03    0.23       9.4  T
   7   -103.5436649 -0.135311E-06  0.596E-04    0.23      21.0  T
   8   -103.5436649 -0.145125E-07  0.262E-04    0.23      47.8  T
     SCC iter.                  ...        0 min,  0.077 sec
     gradient                   ...        0 min,  0.012 sec
 * total energy  :  -102.1792253 Eh     change    :  -0.1625045E-02 Eh
   gradient norm :     0.0177007 Eh/a0  converged?    E=F G=F D=F
   time step     :     0.4026275 fs     power     :   0.5126369E-07
   step length   :     0.1015987 a0     speed     :   0.6103793E-02

........................................................................
.............................. CYCLE  106 ..............................
........................................................................

 iter      E             dE          RMSdq      gap      omega  full diag
   1   -103.5457284 -0.103546E+03  0.397E-02    0.23       0.0  T
   2   -103.5457140  0.143558E-04  0.283E-02    0.22       1.0  T
   3   -103.5456866  0.274828E-04  0.304E-02    0.24       1.0  T
   4   -103.5454849  0.201678E-03  0.578E-02    0.23       1.0  T
   5   -103.5457395 -0.254593E-03  0.556E-03    0.23       2.2  T
   6   -103.5457421 -0.262320E-05  0.147E-03    0.23       8.5  T
   7   -103.5457423 -0.178400E-06  0.661E-04    0.23      18.9  T
   8   -103.5457423 -0.170492E-07  0.298E-04    0.23      41.9  T
     SCC iter.                  ...        0 min,  0.071 sec
     gradient                   ...        0 min,  0.012 sec
 * total energy  :  -102.1809400 Eh     change    :  -0.1714645E-02 Eh
   gradient norm :     0.0171965 Eh/a0  converged?    E=F G=F D=F
   time step     :     0.4428903 fs     power     :   0.4898677E-07
   step length   :     0.1133530 a0     speed     :   0.6190874E-02

........................................................................
.............................. CYCLE  107 ..............................
........................................................................

 iter      E             dE          RMSdq      gap      omega  full diag
   1   -103.5481238 -0.103548E+03  0.440E-02    0.23       0.0  T
   2   -103.5480956  0.282246E-04  0.335E-02    0.22       1.0  T
   3   -103.5478944  0.201174E-03  0.598E-02    0.24       1.0  T
   4   -103.5479672 -0.727676E-04  0.476E-02    0.24       1.0  T
   5   -103.5481374 -0.170220E-03  0.551E-03    0.22       2.3  T
   6   -103.5481402 -0.275063E-05  0.176E-03    0.23       7.1  T
   7   -103.5481405 -0.281630E-06  0.693E-04    0.23      18.0  T
   8   -103.5481405 -0.170389E-07  0.322E-04    0.23      38.8  T
     SCC iter.                  ...        0 min,  0.075 sec
     gradient                   ...        0 min,  0.013 sec
 * total energy  :  -102.1827513 Eh     change    :  -0.1811297E-02 Eh
   gradient norm :     0.0167097 Eh/a0  converged?    E=F G=F D=F
   time step     :     0.4871793 fs     power     :   0.4700454E-07
   step length   :     0.1262901 a0     speed     :   0.6270407E-02

........................................................................
.............................. CYCLE  108 ..............................
........................................................................

 iter      E             dE          RMSdq      gap      omega  full diag
   1   -103.5506209 -0.103551E+03  0.485E-02    0.23       0.0  T
   2   -103.5505932  0.276489E-04  0.359E-02    0.22       1.0  T
   3   -103.5503759  0.217364E-03  0.623E-02    0.24       1.0  T
   4   -103.5503999 -0.240523E-04  0.559E-02    0.24       1.0  T
   5   -103.5506366 -0.236637E-03  0.585E-03    0.22       2.1  T
   6   -103.5506395 -0.298564E-05  0.214E-03    0.23       5.9  T
   7   -103.5506400 -0.442408E-06  0.736E-04    0.23      17.0  T
   8   -103.5506400 -0.193993E-07  0.349E-04    0.23      35.9  T
     SCC iter.                  ...        0 min,  0.089 sec
     gradient                   ...        0 min,  0.019 sec
 * total energy  :  -102.1846649 Eh     change    :  -0.1913649E-02 Eh
   gradient norm :     0.0155411 Eh/a0  converged?    E=F G=F D=F
   time step     :     0.5358972 fs     power     :   0.4493503E-07
   step length   :     0.1405982 a0     speed     :   0.6346193E-02

........................................................................
.............................. CYCLE  109 ..............................
........................................................................

 iter      E             dE          RMSdq      gap      omega  full diag
   1   -103.5530329 -0.103553E+03  0.525E-02    0.23       0.0  T
   2   -103.5530176  0.153049E-04  0.361E-02    0.22       1.0  T
   3   -103.5529893  0.283475E-04  0.327E-02    0.24       1.0  T
   4   -103.5530243 -0.350162E-04  0.192E-02    0.22       1.0  T
   5   -103.5530333 -0.906531E-05  0.160E-02    0.23       1.0  T
   6   -103.5530525 -0.191911E-04  0.251E-03    0.23       5.0  T
   7   -103.5530532 -0.639024E-06  0.763E-04    0.23      16.4  T
   8   -103.5530532 -0.190322E-07  0.368E-04    0.23      33.9  T
     SCC iter.                  ...        0 min,  0.099 sec
     gradient                   ...        0 min,  0.013 sec
 * total energy  :  -102.1866553 Eh     change    :  -0.1990383E-02 Eh
   gradient norm :     0.0146587 Eh/a0  converged?    E=F G=F D=F
   time step     :     0.5894869 fs     power     :   0.4206820E-07
   step length   :     0.1568148 a0     speed     :   0.6434695E-02

........................................................................
.............................. CYCLE  110 ..............................
........................................................................

 iter      E             dE          RMSdq      gap      omega  full diag
   1   -103.5553637 -0.103555E+03  0.559E-02    0.23       0.0  T
   2   -103.5552879  0.757882E-04  0.480E-02    0.22       1.0  T
   3   -103.5548089  0.478969E-03  0.882E-02    0.24       1.0  T
   4   -103.5551827 -0.373734E-03  0.525E-02    0.25       1.0  T
   5   -103.5553830 -0.200309E-03  0.601E-03    0.22       2.1  T
   6   -103.5553861 -0.307117E-05  0.264E-03    0.23       4.7  T
   7   -103.5553867 -0.664056E-06  0.842E-04    0.23      14.8  T
   8   -103.5553867 -0.226194E-07  0.392E-04    0.23      31.9  T
     SCC iter.                  ...        0 min,  0.075 sec
     gradient                   ...        0 min,  0.011 sec
 * total energy  :  -102.1887080 Eh     change    :  -0.2052673E-02 Eh
   gradient norm :     0.0142427 Eh/a0  converged?    E=F G=F D=F
   time step     :     0.6484356 fs     power     :   0.3932969E-07
   step length   :     0.1746984 a0     speed     :   0.6516842E-02

........................................................................
.............................. CYCLE  111 ..............................
........................................................................

 iter      E             dE          RMSdq      gap      omega  full diag
   1   -103.5576169 -0.103558E+03  0.604E-02    0.23       0.0  T
   2   -103.5573196  0.297258E-03  0.745E-02    0.22       1.0  T
   3   -103.5572049  0.114677E-03  0.799E-02    0.23       1.0  T
   4   -103.5575082 -0.303225E-03  0.429E-02    0.25       1.0  T
   5   -103.5576472 -0.139057E-03  0.543E-03    0.22       2.3  T
   6   -103.5576496 -0.237918E-05  0.251E-03    0.23       5.0  T
   7   -103.5576502 -0.575333E-06  0.876E-04    0.23      14.3  T
   8   -103.5576502 -0.212658E-07  0.422E-04    0.23      29.6  T
     SCC iter.                  ...        0 min,  0.076 sec
     gradient                   ...        0 min,  0.013 sec
 * total energy  :  -102.1908282 Eh     change    :  -0.2120191E-02 Eh
   gradient norm :     0.0136870 Eh/a0  converged?    E=F G=F D=F
   time step     :     0.7132792 fs     power     :   0.3670042E-07
   step length   :     0.1940690 a0     speed     :   0.6581300E-02

........................................................................
.............................. CYCLE  112 ..............................
........................................................................

 iter      E             dE          RMSdq      gap      omega  full diag
   1   -103.5593969 -0.103559E+03  0.657E-02    0.24       0.0  T
   2   -103.5587063  0.690665E-03  0.106E-01    0.22       1.0  T
   3   -103.5591686 -0.462319E-03  0.667E-02    0.22       1.0  T
   4   -103.5593254 -0.156773E-03  0.407E-02    0.25       1.0  T
   5   -103.5594462 -0.120865E-03  0.617E-03    0.22       2.0  T
   6   -103.5594493 -0.309644E-05  0.274E-03    0.23       4.6  T
   7   -103.5594500 -0.702301E-06  0.842E-04    0.23      14.8  T
   8   -103.5594501 -0.125373E-07  0.456E-04    0.23      27.4  T
     SCC iter.                  ...        0 min,  0.088 sec
     gradient                   ...        0 min,  0.016 sec
 * total energy  :  -102.1930149 Eh     change    :  -0.2186667E-02 Eh
   gradient norm :     0.0133186 Eh/a0  converged?    E=F G=F D=F
   time step     :     0.7846071 fs     power     :   0.3428016E-07
   step length   :     0.2151868 a0     speed     :   0.6634046E-02

........................................................................
.............................. CYCLE  113 ..............................
........................................................................

 iter      E             dE          RMSdq      gap      omega  full diag
   1   -103.5604279 -0.103560E+03  0.712E-02    0.24       0.0  T
   2   -103.5592726  0.115531E-02  0.134E-01    0.22       1.0  T
   3   -103.5603147 -0.104215E-02  0.586E-02    0.22       1.0  T
   4   -103.5603910 -0.762162E-04  0.399E-02    0.25       1.0  T
   5   -103.5605012 -0.110249E-03  0.672E-03    0.22       1.9  T
   6   -103.5605047 -0.345961E-05  0.296E-03    0.23       4.2  T
   7   -103.5605055 -0.823142E-06  0.815E-04    0.23      15.3  T
   8   -103.5605055 -0.652742E-08  0.485E-04    0.23      25.8  T
     SCC iter.                  ...        0 min,  0.081 sec
     gradient                   ...        0 min,  0.014 sec
 * total energy  :  -102.1952661 Eh     change    :  -0.2251263E-02 Eh
   gradient norm :     0.0128026 Eh/a0  converged?    E=F G=F D=F
   time step     :     0.8630678 fs     power     :   0.3176789E-07
   step length   :     0.2381059 a0     speed     :   0.6673296E-02

........................................................................
.............................. CYCLE  114 ..............................
........................................................................

 iter      E             dE          RMSdq      gap      omega  full diag
   1   -103.5618464 -0.103562E+03  0.763E-02    0.24       0.0  T
   2   -103.5603419  0.150448E-02  0.152E-01    0.22       1.0  T
   3   -103.5618025 -0.146060E-02  0.546E-02    0.22       1.0  T
   4   -103.5618196 -0.170121E-04  0.418E-02    0.26       1.0  T
   5   -103.5619434 -0.123855E-03  0.551E-03    0.23       2.3  T
   6   -103.5619454 -0.194665E-05  0.261E-03    0.23       4.8  T
   7   -103.5619460 -0.611353E-06  0.814E-04    0.23      15.3  T
   8   -103.5619460 -0.897708E-08  0.488E-04    0.23      25.6  T
     SCC iter.                  ...        0 min,  0.076 sec
     gradient                   ...        0 min,  0.014 sec
 * total energy  :  -102.1975673 Eh     change    :  -0.2301224E-02 Eh
   gradient norm :     0.0122449 Eh/a0  converged?    E=F G=F D=F
   time step     :     0.9493746 fs     power     :   0.2929006E-07
   step length   :     0.2630215 a0     speed     :   0.6701449E-02

........................................................................
.............................. CYCLE  115 ..............................
........................................................................

 iter      E             dE          RMSdq      gap      omega  full diag
   1   -103.5646605 -0.103565E+03  0.829E-02    0.24       0.0  T
   2   -103.5629489  0.171160E-02  0.163E-01    0.22       1.0  T
   3   -103.5646456 -0.169673E-02  0.553E-02    0.23       1.0  T
   4   -103.5646413  0.428818E-05  0.426E-02    0.27       1.0  T
   5   -103.5647783 -0.136976E-03  0.460E-03    0.23       2.7  T
   6   -103.5647796 -0.125781E-05  0.218E-03    0.24       5.7  T
   7   -103.5647799 -0.367092E-06  0.956E-04    0.23      13.1  T
   8   -103.5647800 -0.377432E-07  0.463E-04    0.23      27.0  T
     SCC iter.                  ...        0 min,  0.076 sec
     gradient                   ...        0 min,  0.013 sec
 * total energy  :  -102.1999010 Eh     change    :  -0.2333642E-02 Eh
   gradient norm :     0.0116659 Eh/a0  converged?    E=F G=F D=F
   time step     :     1.0443120 fs     power     :   0.2669069E-07
   step length   :     0.2901025 a0     speed     :   0.6719488E-02

........................................................................
.............................. CYCLE  116 ..............................
........................................................................

 iter      E             dE          RMSdq      gap      omega  full diag
   1   -103.5694096 -0.103569E+03  0.907E-02    0.25       0.0  T
   2   -103.5676391  0.177051E-02  0.168E-01    0.22       1.0  T
   3   -103.5693773 -0.173829E-02  0.616E-02    0.23       1.0  T
   4   -103.5694266 -0.492348E-04  0.402E-02    0.27       1.0  T
   5   -103.5695507 -0.124137E-03  0.632E-03    0.23       2.0  T
   6   -103.5695537 -0.296846E-05  0.233E-03    0.24       5.4  T
   7   -103.5695540 -0.321858E-06  0.124E-03    0.24      10.1  T
   8   -103.5695541 -0.848698E-07  0.585E-04    0.24      21.4  T
   9   -103.5695541 -0.110491E-07  0.227E-04    0.24      55.1  T
     SCC iter.                  ...        0 min,  0.087 sec
     gradient                   ...        0 min,  0.019 sec
 * total energy  :  -102.2022494 Eh     change    :  -0.2348405E-02 Eh
   gradient norm :     0.0121380 Eh/a0  converged?    E=F G=F D=F
   time step     :     1.1487432 fs     power     :   0.2423632E-07
   step length   :     0.3193532 a0     speed     :   0.6724552E-02

........................................................................
.............................. CYCLE  117 ..............................
........................................................................

 iter      E             dE          RMSdq      gap      omega  full diag
   1   -103.5744913 -0.103574E+03  0.994E-02    0.26       0.0  T
   2   -103.5729707  0.152062E-02  0.160E-01    0.22       1.0  T
   3   -103.5744191 -0.144841E-02  0.704E-02    0.24       1.0  T
   4   -103.5745233 -0.104247E-03  0.471E-02    0.27       1.0  T
   5   -103.5746697 -0.146356E-03  0.713E-03    0.24       1.8  T
   6   -103.5746734 -0.372115E-05  0.281E-03    0.24       4.4  T
   7   -103.5746738 -0.440408E-06  0.141E-03    0.24       8.9  T
   8   -103.5746739 -0.863640E-07  0.716E-04    0.24      17.5  T
   9   -103.5746739 -0.222447E-07  0.276E-04    0.24      45.4  T
     SCC iter.                  ...        0 min,  0.130 sec
     gradient                   ...        0 min,  0.014 sec
 * total energy  :  -102.2046005 Eh     change    :  -0.2351156E-02 Eh
   gradient norm :     0.0164361 Eh/a0  converged?    E=F G=F D=F
   time step     :     1.2500000 fs     power     :   0.2172549E-07
   step length   :     0.3458559 a0     speed     :   0.6692684E-02

........................................................................
.............................. CYCLE  118 ..............................
........................................................................

 iter      E             dE          RMSdq      gap      omega  full diag
   1   -103.5772114 -0.103577E+03  0.101E-01    0.27       0.0  T
   2   -103.5763657  0.845669E-03  0.128E-01    0.23       1.0  T
   3   -103.5770110 -0.645260E-03  0.771E-02    0.25       1.0  T
   4   -103.5772683 -0.257394E-03  0.346E-02    0.28       1.0  T
   5   -103.5773458 -0.774103E-04  0.822E-03    0.24       1.5  T
   6   -103.5773522 -0.639405E-05  0.233E-03    0.25       5.4  T
   7   -103.5773524 -0.239311E-06  0.103E-03    0.25      12.1  T
   8   -103.5773524 -0.400309E-07  0.398E-04    0.25      31.4  T
   9   -103.5773524 -0.228087E-08  0.261E-04    0.25      47.8  T
     SCC iter.                  ...        0 min,  0.084 sec
     gradient                   ...        0 min,  0.012 sec
 * total energy  :  -102.2067508 Eh     change    :  -0.2150275E-02 Eh
   gradient norm :     0.0296350 Eh/a0  converged?    E=F G=F D=F
   time step     :     1.2500000 fs     power     :   0.1659325E-07
   step length   :     0.3395188 a0     speed     :   0.6570054E-02

........................................................................
.............................. CYCLE  119 ..............................
........................................................................

 iter      E             dE          RMSdq      gap      omega  full diag
   1   -103.5841269 -0.103584E+03  0.108E-01    0.29       0.0  T
   2   -103.5837948  0.332152E-03  0.102E-01    0.23       1.0  T
   3   -103.5838807 -0.858597E-04  0.825E-02    0.27       1.0  T
   4   -103.5841027 -0.222009E-03  0.543E-02    0.28       1.0  T
   5   -103.5842906 -0.187959E-03  0.732E-03    0.25       1.7  T
   6   -103.5842943 -0.368395E-05  0.205E-03    0.26       6.1  T
   7   -103.5842944 -0.467586E-07  0.135E-03    0.26       9.3  T
   8   -103.5842944 -0.795051E-07  0.640E-04    0.26      19.5  T
   9   -103.5842944 -0.183605E-07  0.263E-04    0.26      47.5  T
     SCC iter.                  ...        0 min,  0.086 sec
     gradient                   ...        0 min,  0.013 sec
 * total energy  :  -102.2092758 Eh     change    :  -0.2524943E-02 Eh
   gradient norm :     0.0362892 Eh/a0  converged?    E=F G=F D=F
   time step     :     1.2500000 fs     power     :   0.1578306E-07
   step length   :     0.3300322 a0     speed     :   0.6386477E-02

........................................................................
.............................. CYCLE  120 ..............................
........................................................................

 iter      E             dE          RMSdq      gap      omega  full diag
   1   -103.5880201 -0.103588E+03  0.126E-01    0.34       0.0  T
   2   -103.5880879 -0.677852E-04  0.671E-02    0.28       1.0  T
   3   -103.5880421  0.457634E-04  0.459E-02    0.32       1.0  T
   4   -103.5880671 -0.249754E-04  0.266E-02    0.30       1.0  T
   5   -103.5881136 -0.464754E-04  0.957E-03    0.30       1.3  T
   6   -103.5881195 -0.588250E-05  0.203E-03    0.30       6.1  T
   7   -103.5881195 -0.542621E-07  0.115E-03    0.30      10.8  T
   8   -103.5881196 -0.423564E-07  0.480E-04    0.30      26.1  T
   9   -103.5881196 -0.753897E-08  0.224E-04    0.30      55.8  T
     SCC iter.                  ...        0 min,  0.085 sec
     gradient                   ...        0 min,  0.012 sec
 * total energy  :  -102.2131388 Eh     change    :  -0.3863080E-02 Eh
   gradient norm :     0.0337091 Eh/a0  converged?    E=F G=F D=F
   time step     :     1.2500000 fs     power     :   0.3657564E-07
   step length   :     0.3227723 a0     speed     :   0.6245990E-02

........................................................................
.............................. CYCLE  121 ..............................
........................................................................

 iter      E             dE          RMSdq      gap      omega  full diag
   1   -103.5963675 -0.103596E+03  0.183E-01    0.44       0.0  T
   2   -103.5961045  0.262968E-03  0.114E-01    0.40       1.0  T
   3   -103.5957686  0.335903E-03  0.132E-01    0.40       1.0  T
   4   -103.5966584 -0.889813E-03  0.279E-02    0.41       1.0  T
   5   -103.5966875 -0.291336E-04  0.822E-03    0.40       1.5  T
   6   -103.5966908 -0.323267E-05  0.224E-03    0.40       5.6  T
   7   -103.5966908 -0.181938E-07  0.111E-03    0.40      11.3  T
   8   -103.5966908 -0.262582E-07  0.481E-04    0.40      26.0  T
   9   -103.5966908 -0.101314E-07  0.136E-04    0.40      91.9  T
     SCC iter.                  ...        0 min,  0.081 sec
     gradient                   ...        0 min,  0.012 sec
 * total energy  :  -102.2199209 Eh     change    :  -0.6782081E-02 Eh
   gradient norm :     0.0473973 Eh/a0  converged?    E=F G=F D=F
   time step     :     1.2500000 fs     power     :   0.8545713E-07
   step length   :     0.3283357 a0     speed     :   0.6353649E-02

........................................................................
.............................. CYCLE  122 ..............................
........................................................................

 iter      E             dE          RMSdq      gap      omega  full diag
   1   -103.6142695 -0.103614E+03  0.298E-01    0.69       0.0  T
   2   -103.6137351  0.534444E-03  0.205E-01    0.69       1.0  T
   3   -103.6153286 -0.159348E-02  0.142E-01    0.67       1.0  T
   4   -103.6159502 -0.621641E-03  0.421E-02    0.66       1.0  T
   5   -103.6160234 -0.731522E-04  0.100E-02    0.66       1.2  T
   6   -103.6160271 -0.376881E-05  0.375E-03    0.66       3.3  T
   7   -103.6160272 -0.974203E-07  0.133E-03    0.66       9.4  T
   8   -103.6160273 -0.599876E-07  0.619E-04    0.66      20.2  T
   9   -103.6160273 -0.109710E-07  0.245E-04    0.66      51.1  T
     SCC iter.                  ...        0 min,  0.085 sec
     gradient                   ...        0 min,  0.014 sec
 * total energy  :  -102.2346767 Eh     change    :  -0.1475577E-01 Eh
   gradient norm :     0.0747647 Eh/a0  converged?    E=F G=F D=F
   time step     :     1.2500000 fs     power     :   0.1766293E-06
   step length   :     0.3609007 a0     speed     :   0.6983817E-02

........................................................................
.............................. CYCLE  123 ..............................
........................................................................

 iter      E             dE          RMSdq      gap      omega  full diag
   1   -103.6463380 -0.103646E+03  0.392E-01    0.95       0.0  T
   2   -103.6467782 -0.440182E-03  0.304E-01    0.92       1.0  T
   3   -103.6510326 -0.425437E-02  0.141E-01    0.92       1.0  T
   4   -103.6511733 -0.140787E-03  0.664E-02    0.92       1.0  T
   5   -103.6513517 -0.178367E-03  0.176E-02    0.91       1.0  T
   6   -103.6513632 -0.115167E-04  0.624E-03    0.91       2.0  T
   7   -103.6513636 -0.340647E-06  0.244E-03    0.92       5.1  T
   8   -103.6513638 -0.252646E-06  0.104E-03    0.92      12.0  T
   9   -103.6513638 -0.242255E-07  0.482E-04    0.92      25.9  T
  10   -103.6513639 -0.631171E-08  0.209E-04    0.92      59.8  T
     SCC iter.                  ...        0 min,  0.100 sec
     gradient                   ...        0 min,  0.013 sec
 * total energy  :  -102.2585303 Eh     change    :  -0.2385358E-01 Eh
   gradient norm :     0.0779315 Eh/a0  converged?    E=F G=F D=F
   time step     :     1.2500000 fs     power     :   0.1674054E-06
   step length   :     0.4313490 a0     speed     :   0.8347066E-02

........................................................................
.............................. CYCLE  124 ..............................
........................................................................

 iter      E             dE          RMSdq      gap      omega  full diag
   1   -103.6783123 -0.103678E+03  0.348E-01    0.98       0.0  T
   2   -103.6783360 -0.236851E-04  0.307E-01    0.94       1.0  T
   3   -103.6826897 -0.435371E-02  0.118E-01    0.94       1.0  T
   4   -103.6826561  0.336266E-04  0.547E-02    0.94       1.0  T
   5   -103.6827859 -0.129821E-03  0.164E-02    0.93       1.0  T
   6   -103.6827956 -0.971323E-05  0.601E-03    0.93       2.1  T
   7   -103.6827960 -0.383395E-06  0.201E-03    0.94       6.2  T
   8   -103.6827962 -0.168508E-06  0.839E-04    0.94      14.9  T
   9   -103.6827962 -0.192472E-07  0.345E-04    0.94      36.2  T
     SCC iter.                  ...        0 min,  0.092 sec
     gradient                   ...        0 min,  0.012 sec
 * total energy  :  -102.2696148 Eh     change    :  -0.1108453E-01 Eh
   gradient norm :     0.1645048 Eh/a0  converged?    E=F G=F D=F
   time step     :     1.2500000 fs     power     :  -0.7383652E-07
   step length   :     0.4847849 a0     speed     :   0.9381109E-02

........................................................................
.............................. CYCLE  125 ..............................
........................................................................
 * reset velocities

 iter      E             dE          RMSdq      gap      omega  full diag
   1   -103.6796449 -0.103680E+03  0.407E-02    0.94       0.0  T
   2   -103.6796486 -0.373049E-05  0.273E-02    0.94       1.0  T
   3   -103.6796604 -0.117939E-04  0.192E-02    0.94       1.0  T
   4   -103.6796689 -0.853173E-05  0.470E-03    0.94       2.7  T
   5   -103.6796698 -0.845074E-06  0.178E-03    0.94       7.0  T
   6   -103.6796699 -0.137755E-06  0.665E-04    0.94      18.8  T
   7   -103.6796699 -0.328794E-08  0.179E-04    0.94      69.9  T
     SCC iter.                  ...        0 min,  0.072 sec
     gradient                   ...        0 min,  0.014 sec
 * total energy  :  -102.2773557 Eh     change    :  -0.7740918E-02 Eh
   gradient norm :     0.0976325 Eh/a0  converged?    E=F G=F D=F
   time step     :     0.6250000 fs     power     :   0.1219418E-06
   step length   :     0.0602488 a0     speed     :   0.2331758E-02

........................................................................
.............................. CYCLE  126 ..............................
........................................................................

 iter      E             dE          RMSdq      gap      omega  full diag
   1   -103.6740117 -0.103674E+03  0.647E-02    0.95       0.0  T
   2   -103.6740191 -0.747901E-05  0.447E-02    0.95       1.0  T
   3   -103.6740609 -0.417913E-04  0.300E-02    0.95       1.0  T
   4   -103.6740802 -0.192238E-04  0.776E-03    0.95       1.6  T
   5   -103.6740824 -0.228852E-05  0.290E-03    0.95       4.3  T
   6   -103.6740828 -0.378772E-06  0.102E-03    0.95      12.3  T
   7   -103.6740828 -0.786605E-08  0.302E-04    0.95      41.4  T
   8   -103.6740828 -0.182069E-08  0.131E-04    0.95      95.4  T
     SCC iter.                  ...        0 min,  0.081 sec
     gradient                   ...        0 min,  0.014 sec
 * total energy  :  -102.2827800 Eh     change    :  -0.5424261E-02 Eh
   gradient norm :     0.0456003 Eh/a0  converged?    E=F G=F D=F
   time step     :     0.6250000 fs     power     :   0.4350666E-07
   step length   :     0.0954479 a0     speed     :   0.3694038E-02
 * RMSD in coord.:     0.5841580 a0     energy gain  -0.1161620E+00 Eh

........................................................................
.............................. CYCLE  127 ..............................
........................................................................

 iter      E             dE          RMSdq      gap      omega  full diag
   1   -103.6719458 -0.103672E+03  0.256E-02    0.95       0.0  T
   2   -103.6719467 -0.944314E-06  0.179E-02    0.95       1.0  T
   3   -103.6719538 -0.710808E-05  0.117E-02    0.95       1.1  T
   4   -103.6719567 -0.285818E-05  0.307E-03    0.95       4.1  T
   5   -103.6719570 -0.360712E-06  0.114E-03    0.95      11.0  T
   6   -103.6719571 -0.579756E-07  0.391E-04    0.95      32.0  T
   7   -103.6719571 -0.111866E-08  0.123E-04    0.95     101.9  T
     SCC iter.                  ...        0 min,  0.071 sec
     gradient                   ...        0 min,  0.012 sec
 * total energy  :  -102.2834215 Eh     change    :  -0.6414583E-03 Eh
   gradient norm :     0.0468754 Eh/a0  converged?    E=F G=F D=F
   time step     :     0.2500000 fs     power     :   0.1413434E-07
   step length   :     0.0378524 a0     speed     :   0.3662421E-02

........................................................................
.............................. CYCLE  128 ..............................
........................................................................

 iter      E             dE          RMSdq      gap      omega  full diag
   1   -103.6703842 -0.103670E+03  0.237E-02    0.95       0.0  T
   2   -103.6703848 -0.595992E-06  0.167E-02    0.95       1.0  T
   3   -103.6703902 -0.546321E-05  0.108E-02    0.95       1.2  T
   4   -103.6703928 -0.255950E-05  0.271E-03    0.95       4.6  T
   5   -103.6703931 -0.285964E-06  0.101E-03    0.95      12.4  T
   6   -103.6703931 -0.448528E-07  0.351E-04    0.95      35.6  T
   7   -103.6703931 -0.857796E-09  0.115E-04    0.95     108.7  T
     SCC iter.                  ...        0 min,  0.071 sec
     gradient                   ...        0 min,  0.015 sec
 * total energy  :  -102.2837156 Eh     change    :  -0.2941426E-03 Eh
   gradient norm :     0.0528174 Eh/a0  converged?    E=F G=F D=F
   time step     :     0.2500000 fs     power     :   0.2689580E-08
   step length   :     0.0356375 a0     speed     :   0.3448121E-02

........................................................................
.............................. CYCLE  129 ..............................
........................................................................

 iter      E             dE          RMSdq      gap      omega  full diag
   1   -103.6695109 -0.103670E+03  0.211E-02    0.95       0.0  T
   2   -103.6695113 -0.428423E-06  0.146E-02    0.95       1.0  T
   3   -103.6695141 -0.279955E-05  0.971E-03    0.95       1.3  T
   4   -103.6695165 -0.236080E-05  0.217E-03    0.95       5.7  T
   5   -103.6695167 -0.184388E-06  0.845E-04    0.95      14.8  T
   6   -103.6695167 -0.305776E-07  0.300E-04    0.95      41.6  T
     SCC iter.                  ...        0 min,  0.061 sec
     gradient                   ...        0 min,  0.014 sec
 * total energy  :  -102.2839627 Eh     change    :  -0.2470768E-03 Eh
   gradient norm :     0.0579966 Eh/a0  converged?    E=F G=F D=F
   time step     :     0.2500000 fs     power     :   0.5291126E-08
   step length   :     0.0329327 a0     speed     :   0.3186419E-02

........................................................................
.............................. CYCLE  130 ..............................
........................................................................

 iter      E             dE          RMSdq      gap      omega  full diag
   1   -103.6693479 -0.103669E+03  0.185E-02    0.95       0.0  T
   2   -103.6693483 -0.443712E-06  0.124E-02    0.95       1.0  T
   3   -103.6693484 -0.129106E-06  0.857E-03    0.95       1.5  T
   4   -103.6693508 -0.238098E-05  0.157E-03    0.95       8.0  T
   5   -103.6693509 -0.912482E-07  0.682E-04    0.95      18.3  T
   6   -103.6693509 -0.196983E-07  0.252E-04    0.95      49.6  T
     SCC iter.                  ...        0 min,  0.054 sec
     gradient                   ...        0 min,  0.011 sec
 * total energy  :  -102.2843502 Eh     change    :  -0.3875012E-03 Eh
   gradient norm :     0.0610682 Eh/a0  converged?    E=F G=F D=F
   time step     :     0.2500000 fs     power     :   0.1579659E-07
   step length   :     0.0307243 a0     speed     :   0.2972740E-02

........................................................................
.............................. CYCLE  131 ..............................
........................................................................

 iter      E             dE          RMSdq      gap      omega  full diag
   1   -103.6698614 -0.103670E+03  0.164E-02    0.95       0.0  T
   2   -103.6698619 -0.544139E-06  0.105E-02    0.95       1.2  T
   3   -103.6698604  0.148738E-05  0.709E-03    0.95       1.8  T
   4   -103.6698627 -0.223675E-05  0.105E-03    0.95      11.9  T
   5   -103.6698627 -0.414672E-07  0.405E-04    0.95      30.8  T
   6   -103.6698627 -0.498311E-08  0.224E-04    0.95      55.9  T
     SCC iter.                  ...        0 min,  0.050 sec
     gradient                   ...        0 min,  0.011 sec
 * total energy  :  -102.2849641 Eh     change    :  -0.6138902E-03 Eh
   gradient norm :     0.0621070 Eh/a0  converged?    E=F G=F D=F
   time step     :     0.2500000 fs     power     :   0.2937824E-07
   step length   :     0.0294483 a0     speed     :   0.2849283E-02

........................................................................
.............................. CYCLE  132 ..............................
........................................................................

 iter      E             dE          RMSdq      gap      omega  full diag
   1   -103.6711391 -0.103671E+03  0.170E-02    0.95       0.0  T
   2   -103.6711399 -0.797959E-06  0.103E-02    0.95       1.2  T
   3   -103.6711384  0.147110E-05  0.612E-03    0.95       2.0  T
   4   -103.6711400 -0.162860E-05  0.154E-03    0.95       8.1  T
   5   -103.6711402 -0.122868E-06  0.375E-04    0.95      33.3  T
   6   -103.6711402 -0.443038E-08  0.198E-04    0.95      63.2  T
     SCC iter.                  ...        0 min,  0.051 sec
     gradient                   ...        0 min,  0.011 sec
 * total energy  :  -102.2859274 Eh     change    :  -0.9633168E-03 Eh
   gradient norm :     0.0612906 Eh/a0  converged?    E=F G=F D=F
   time step     :     0.2750000 fs     power     :   0.4360105E-07
   step length   :     0.0322990 a0     speed     :   0.2841003E-02

........................................................................
.............................. CYCLE  133 ..............................
........................................................................

 iter      E             dE          RMSdq      gap      omega  full diag
   1   -103.6732559 -0.103673E+03  0.194E-02    0.95       0.0  T
   2   -103.6732569 -0.101280E-05  0.117E-02    0.95       1.1  T
   3   -103.6732547  0.225873E-05  0.101E-02    0.95       1.2  T
   4   -103.6732586 -0.395635E-05  0.147E-03    0.95       8.5  T
   5   -103.6732587 -0.920634E-07  0.613E-04    0.95      20.4  T
   6   -103.6732587 -0.180641E-07  0.236E-04    0.95      53.1  T
     SCC iter.                  ...        0 min,  0.050 sec
     gradient                   ...        0 min,  0.010 sec
 * total energy  :  -102.2872855 Eh     change    :  -0.1358151E-02 Eh
   gradient norm :     0.0585318 Eh/a0  converged?    E=F G=F D=F
   time step     :     0.3025000 fs     power     :   0.5625708E-07
   step length   :     0.0368539 a0     speed     :   0.2946953E-02

........................................................................
.............................. CYCLE  134 ..............................
........................................................................

 iter      E             dE          RMSdq      gap      omega  full diag
   1   -103.6762368 -0.103676E+03  0.239E-02    0.95       0.0  T
   2   -103.6762379 -0.101398E-05  0.151E-02    0.95       1.0  T
   3   -103.6762404 -0.252902E-05  0.120E-02    0.95       1.0  T
   4   -103.6762443 -0.394217E-05  0.233E-03    0.95       5.4  T
   5   -103.6762445 -0.204246E-06  0.105E-03    0.95      11.9  T
   6   -103.6762446 -0.574694E-07  0.264E-04    0.95      47.3  T
   7   -103.6762446 -0.111781E-08  0.950E-05    0.95     131.6  T
     SCC iter.                  ...        0 min,  0.057 sec
     gradient                   ...        0 min,  0.011 sec
 * total energy  :  -102.2890315 Eh     change    :  -0.1745952E-02 Eh
   gradient norm :     0.0535365 Eh/a0  converged?    E=F G=F D=F
   time step     :     0.3327500 fs     power     :   0.6501096E-07
   step length   :     0.0433014 a0     speed     :   0.3147742E-02

........................................................................
.............................. CYCLE  135 ..............................
........................................................................

 iter      E             dE          RMSdq      gap      omega  full diag
   1   -103.6800055 -0.103680E+03  0.303E-02    0.95       0.0  T
   2   -103.6800060 -0.492485E-06  0.204E-02    0.95       1.0  T
   3   -103.6800179 -0.119362E-04  0.140E-02    0.95       1.0  T
   4   -103.6800220 -0.405730E-05  0.343E-03    0.95       3.6  T
   5   -103.6800224 -0.479684E-06  0.130E-03    0.95       9.6  T
   6   -103.6800225 -0.871492E-07  0.311E-04    0.95      40.2  T
   7   -103.6800225 -0.134649E-08  0.120E-04    0.95     104.6  T
     SCC iter.                  ...        0 min,  0.058 sec
     gradient                   ...        0 min,  0.010 sec
 * total energy  :  -102.2910679 Eh     change    :  -0.2036416E-02 Eh
   gradient norm :     0.0459395 Eh/a0  converged?    E=F G=F D=F
   time step     :     0.3660250 fs     power     :   0.6679733E-07
   step length   :     0.0516233 a0     speed     :   0.3411535E-02

........................................................................
.............................. CYCLE  136 ..............................
........................................................................

 iter      E             dE          RMSdq      gap      omega  full diag
   1   -103.6843079 -0.103684E+03  0.380E-02    0.95       0.0  T
   2   -103.6843070  0.914519E-06  0.267E-02    0.95       1.0  T
   3   -103.6843330 -0.259487E-04  0.163E-02    0.95       1.0  T
   4   -103.6843375 -0.454015E-05  0.456E-03    0.95       2.7  T
   5   -103.6843384 -0.927469E-06  0.138E-03    0.95       9.0  T
   6   -103.6843385 -0.923176E-07  0.367E-04    0.95      34.0  T
   7   -103.6843385 -0.152990E-08  0.154E-04    0.95      81.1  T
     SCC iter.                  ...        0 min,  0.059 sec
     gradient                   ...        0 min,  0.013 sec
 * total energy  :  -102.2931565 Eh     change    :  -0.2088616E-02 Eh
   gradient norm :     0.0365843 Eh/a0  converged?    E=F G=F D=F
   time step     :     0.4026275 fs     power     :   0.5815817E-07
   step length   :     0.0614942 a0     speed     :   0.3694416E-02

........................................................................
.............................. CYCLE  137 ..............................
........................................................................

 iter      E             dE          RMSdq      gap      omega  full diag
   1   -103.6886167 -0.103689E+03  0.452E-02    0.95       0.0  T
   2   -103.6886133  0.342816E-05  0.329E-02    0.95       1.0  T
   3   -103.6886548 -0.415158E-04  0.187E-02    0.95       1.0  T
   4   -103.6886600 -0.518425E-05  0.548E-03    0.95       2.3  T
   5   -103.6886614 -0.142766E-05  0.134E-03    0.95       9.3  T
   6   -103.6886615 -0.765897E-07  0.422E-04    0.95      29.6  T
   7   -103.6886615 -0.160831E-08  0.190E-04    0.95      65.9  T
     SCC iter.                  ...        0 min,  0.058 sec
     gradient                   ...        0 min,  0.014 sec
 * total energy  :  -102.2949354 Eh     change    :  -0.1778916E-02 Eh
   gradient norm :     0.0320762 Eh/a0  converged?    E=F G=F D=F
   time step     :     0.4428903 fs     power     :   0.3913402E-07
   step length   :     0.0719984 a0     speed     :   0.3932256E-02

........................................................................
.............................. CYCLE  138 ..............................
........................................................................

 iter      E             dE          RMSdq      gap      omega  full diag
   1   -103.6921195 -0.103692E+03  0.480E-02    0.95       0.0  T
   2   -103.6921138  0.571065E-05  0.358E-02    0.95       1.0  T
   3   -103.6921601 -0.463834E-04  0.199E-02    0.95       1.0  T
   4   -103.6921659 -0.575942E-05  0.567E-03    0.95       2.2  T
   5   -103.6921675 -0.158171E-05  0.127E-03    0.95       9.8  T
   6   -103.6921675 -0.591780E-07  0.457E-04    0.95      27.3  T
   7   -103.6921675 -0.146292E-08  0.206E-04    0.95      60.7  T
     SCC iter.                  ...        0 min,  0.059 sec
     gradient                   ...        0 min,  0.011 sec
 * total energy  :  -102.2962411 Eh     change    :  -0.1305705E-02 Eh
   gradient norm :     0.0399242 Eh/a0  converged?    E=F G=F D=F
   time step     :     0.4871793 fs     power     :   0.2278885E-07
   step length   :     0.0808964 a0     speed     :   0.4016570E-02

........................................................................
.............................. CYCLE  139 ..............................
........................................................................

 iter      E             dE          RMSdq      gap      omega  full diag
   1   -103.6942428 -0.103694E+03  0.452E-02    0.95       0.0  T
   2   -103.6942378  0.495772E-05  0.332E-02    0.95       1.0  T
   3   -103.6942674 -0.295282E-04  0.200E-02    0.95       1.0  T
   4   -103.6942748 -0.741223E-05  0.475E-03    0.95       2.6  T
   5   -103.6942759 -0.111919E-05  0.122E-03    0.95      10.2  T
   6   -103.6942759 -0.503169E-07  0.466E-04    0.95      26.8  T
   7   -103.6942759 -0.129816E-08  0.186E-04    0.95      67.3  T
     SCC iter.                  ...        0 min,  0.056 sec
     gradient                   ...        0 min,  0.011 sec
 * total energy  :  -102.2975608 Eh     change    :  -0.1319696E-02 Eh
   gradient norm :     0.0475723 Eh/a0  converged?    E=F G=F D=F
   time step     :     0.5358972 fs     power     :   0.2599564E-07
   step length   :     0.0875788 a0     speed     :   0.3953053E-02

........................................................................
.............................. CYCLE  140 ..............................
........................................................................

 iter      E             dE          RMSdq      gap      omega  full diag
   1   -103.6949058 -0.103695E+03  0.423E-02    0.95       0.0  T
   2   -103.6949042  0.153855E-05  0.283E-02    0.95       1.0  T
   3   -103.6949007  0.353693E-05  0.213E-02    0.95       1.0  T
   4   -103.6949178 -0.170850E-04  0.294E-03    0.95       4.3  T
   5   -103.6949182 -0.380494E-06  0.124E-03    0.95      10.1  T
   6   -103.6949182 -0.502058E-07  0.487E-04    0.95      25.7  T
   7   -103.6949182 -0.210795E-08  0.144E-04    0.95      87.0  T
     SCC iter.                  ...        0 min,  0.055 sec
     gradient                   ...        0 min,  0.011 sec
 * total energy  :  -102.2995455 Eh     change    :  -0.1984656E-02 Eh
   gradient norm :     0.0424928 Eh/a0  converged?    E=F G=F D=F
   time step     :     0.5894869 fs     power     :   0.3961462E-07
   step length   :     0.0965229 a0     speed     :   0.3960692E-02

........................................................................
.............................. CYCLE  141 ..............................
........................................................................

 iter      E             dE          RMSdq      gap      omega  full diag
   1   -103.6943924 -0.103694E+03  0.463E-02    0.95       0.0  T
   2   -103.6943937 -0.126001E-05  0.278E-02    0.95       1.0  T
   3   -103.6943796  0.141143E-04  0.165E-02    0.95       1.0  T
   4   -103.6943953 -0.157568E-04  0.192E-03    0.95       6.5  T
   5   -103.6943954 -0.945119E-07  0.104E-03    0.95      12.1  T
   6   -103.6943955 -0.266672E-07  0.583E-04    0.95      21.5  T
   7   -103.6943955 -0.900435E-08  0.174E-04    0.95      71.9  T
     SCC iter.                  ...        0 min,  0.056 sec
     gradient                   ...        0 min,  0.012 sec
 * total energy  :  -102.3019023 Eh     change    :  -0.2356772E-02 Eh
   gradient norm :     0.0291053 Eh/a0  converged?    E=F G=F D=F
   time step     :     0.6484356 fs     power     :   0.3752017E-07
   step length   :     0.1104406 a0     speed     :   0.4119807E-02

........................................................................
.............................. CYCLE  142 ..............................
........................................................................

 iter      E             dE          RMSdq      gap      omega  full diag
   1   -103.6934723 -0.103693E+03  0.542E-02    0.95       0.0  T
   2   -103.6934746 -0.224880E-05  0.337E-02    0.95       1.0  T
   3   -103.6934590  0.155831E-04  0.254E-02    0.95       1.0  T
   4   -103.6934851 -0.260794E-04  0.268E-03    0.95       4.7  T
   5   -103.6934853 -0.239027E-06  0.148E-03    0.95       8.4  T
   6   -103.6934854 -0.808619E-07  0.679E-04    0.95      18.4  T
   7   -103.6934854 -0.440308E-08  0.271E-04    0.95      46.1  T
     SCC iter.                  ...        0 min,  0.058 sec
     gradient                   ...        0 min,  0.012 sec
 * total energy  :  -102.3036979 Eh     change    :  -0.1795597E-02 Eh
   gradient norm :     0.0285756 Eh/a0  converged?    E=F G=F D=F
   time step     :     0.7132792 fs     power     :   0.1940717E-07
   step length   :     0.1263461 a0     speed     :   0.4284670E-02

........................................................................
.............................. CYCLE  143 ..............................
........................................................................

 iter      E             dE          RMSdq      gap      omega  full diag
   1   -103.6931033 -0.103693E+03  0.552E-02    0.95       0.0  T
   2   -103.6931073 -0.401098E-05  0.356E-02    0.95       1.0  T
   3   -103.6930974  0.996458E-05  0.252E-02    0.95       1.0  T
   4   -103.6931212 -0.238466E-04  0.342E-03    0.95       3.7  T
   5   -103.6931216 -0.432045E-06  0.161E-03    0.95       7.8  T
   6   -103.6931217 -0.100976E-06  0.749E-04    0.95      16.7  T
   7   -103.6931217 -0.799906E-08  0.290E-04    0.95      43.0  T
     SCC iter.                  ...        0 min,  0.054 sec
     gradient                   ...        0 min,  0.011 sec
 * total energy  :  -102.3050098 Eh     change    :  -0.1311911E-02 Eh
   gradient norm :     0.0363547 Eh/a0  converged?    E=F G=F D=F
   time step     :     0.7846071 fs     power     :   0.1255354E-07
   step length   :     0.1377134 a0     speed     :   0.4245600E-02

........................................................................
.............................. CYCLE  144 ..............................
........................................................................

 iter      E             dE          RMSdq      gap      omega  full diag
   1   -103.6937719 -0.103694E+03  0.538E-02    0.96       0.0  T
   2   -103.6937758 -0.394262E-05  0.324E-02    0.95       1.0  T
   3   -103.6937564  0.194838E-04  0.209E-02    0.96       1.0  T
   4   -103.6937792 -0.228355E-04  0.308E-03    0.96       4.1  T
   5   -103.6937796 -0.357055E-06  0.142E-03    0.95       8.8  T
   6   -103.6937796 -0.575993E-07  0.714E-04    0.96      17.5  T
   7   -103.6937796 -0.174810E-07  0.260E-04    0.96      48.0  T
     SCC iter.                  ...        0 min,  0.054 sec
     gradient                   ...        0 min,  0.012 sec
 * total energy  :  -102.3067553 Eh     change    :  -0.1745504E-02 Eh
   gradient norm :     0.0362588 Eh/a0  converged?    E=F G=F D=F
   time step     :     0.8630678 fs     power     :   0.2046241E-07
   step length   :     0.1488478 a0     speed     :   0.4171696E-02

........................................................................
.............................. CYCLE  145 ..............................
........................................................................

 iter      E             dE          RMSdq      gap      omega  full diag
   1   -103.6958741 -0.103696E+03  0.650E-02    0.96       0.0  T
   2   -103.6958707  0.347751E-05  0.402E-02    0.95       1.0  T
   3   -103.6958567  0.139837E-04  0.351E-02    0.95       1.0  T
   4   -103.6959018 -0.451020E-04  0.451E-03    0.95       2.8  T
   5   -103.6959025 -0.722327E-06  0.200E-03    0.95       6.2  T
   6   -103.6959026 -0.142623E-06  0.752E-04    0.95      16.6  T
   7   -103.6959027 -0.122947E-07  0.251E-04    0.95      49.9  T
     SCC iter.                  ...        0 min,  0.058 sec
     gradient                   ...        0 min,  0.011 sec
 * total energy  :  -102.3089865 Eh     change    :  -0.2231213E-02 Eh
   gradient norm :     0.0247155 Eh/a0  converged?    E=F G=F D=F
   time step     :     0.9493746 fs     power     :   0.2080536E-07
   step length   :     0.1662865 a0     speed     :   0.4236766E-02

........................................................................
.............................. CYCLE  146 ..............................
........................................................................

 iter      E             dE          RMSdq      gap      omega  full diag
   1   -103.6992532 -0.103699E+03  0.757E-02    0.95       0.0  T
   2   -103.6992469  0.630306E-05  0.496E-02    0.95       1.0  T
   3   -103.6992689 -0.220176E-04  0.379E-02    0.95       1.0  T
   4   -103.6993105 -0.415187E-04  0.687E-03    0.95       1.8  T
   5   -103.6993124 -0.196206E-05  0.244E-03    0.95       5.1  T
   6   -103.6993126 -0.199269E-06  0.102E-03    0.95      12.3  T
   7   -103.6993126 -0.196294E-07  0.335E-04    0.95      37.3  T
   8   -103.6993127 -0.271116E-08  0.179E-04    0.95      69.8  T
     SCC iter.                  ...        0 min,  0.071 sec
     gradient                   ...        0 min,  0.014 sec
 * total energy  :  -102.3103357 Eh     change    :  -0.1349253E-02 Eh
   gradient norm :     0.0317454 Eh/a0  converged?    E=F G=F D=F
   time step     :     1.0443120 fs     power     :   0.2340357E-08
   step length   :     0.1859347 a0     speed     :   0.4306707E-02

........................................................................
.............................. CYCLE  147 ..............................
........................................................................

 iter      E             dE          RMSdq      gap      omega  full diag
   1   -103.7009411 -0.103701E+03  0.632E-02    0.95       0.0  T
   2   -103.7009451 -0.398698E-05  0.376E-02    0.95       1.0  T
   3   -103.7009102  0.349161E-04  0.294E-02    0.95       1.0  T
   4   -103.7009531 -0.429421E-04  0.390E-03    0.95       3.2  T
   5   -103.7009536 -0.503456E-06  0.195E-03    0.95       6.4  T
   6   -103.7009537 -0.120646E-06  0.936E-04    0.95      13.4  T
   7   -103.7009538 -0.207994E-07  0.337E-04    0.95      37.0  T
     SCC iter.                  ...        0 min,  0.064 sec
     gradient                   ...        0 min,  0.013 sec
 * total energy  :  -102.3118361 Eh     change    :  -0.1500345E-02 Eh
   gradient norm :     0.0324948 Eh/a0  converged?    E=F G=F D=F
   time step     :     1.1487432 fs     power     :   0.1178857E-07
   step length   :     0.1970863 a0     speed     :   0.4150005E-02

........................................................................
.............................. CYCLE  148 ..............................
........................................................................

 iter      E             dE          RMSdq      gap      omega  full diag
   1   -103.6992260 -0.103699E+03  0.702E-02    0.95       0.0  T
   2   -103.6992373 -0.112841E-04  0.443E-02    0.95       1.0  T
   3   -103.6992170  0.202964E-04  0.324E-02    0.95       1.0  T
   4   -103.6992565 -0.394781E-04  0.575E-03    0.95       2.2  T
   5   -103.6992578 -0.134140E-05  0.240E-03    0.95       5.2  T
   6   -103.6992581 -0.219685E-06  0.113E-03    0.95      11.0  T
   7   -103.6992581 -0.281618E-07  0.410E-04    0.95      30.5  T
   8   -103.6992581 -0.462984E-08  0.190E-04    0.95      65.6  T
     SCC iter.                  ...        0 min,  0.070 sec
     gradient                   ...        0 min,  0.012 sec
 * total energy  :  -102.3137047 Eh     change    :  -0.1868649E-02 Eh
   gradient norm :     0.0250326 Eh/a0  converged?    E=F G=F D=F
   time step     :     1.2500000 fs     power     :   0.6294707E-08
   step length   :     0.2166803 a0     speed     :   0.4192997E-02

........................................................................
.............................. CYCLE  149 ..............................
........................................................................

 iter      E             dE          RMSdq      gap      omega  full diag
   1   -103.7005834 -0.103701E+03  0.644E-02    0.95       0.0  T
   2   -103.7005996 -0.161734E-04  0.375E-02    0.95       1.0  T
   3   -103.7005871  0.125209E-04  0.207E-02    0.95       1.0  T
   4   -103.7006028 -0.157430E-04  0.602E-03    0.95       2.1  T
   5   -103.7006046 -0.175338E-05  0.151E-03    0.95       8.3  T
   6   -103.7006046 -0.234463E-07  0.970E-04    0.95      12.9  T
   7   -103.7006047 -0.313643E-07  0.400E-04    0.95      31.2  T
     SCC iter.                  ...        0 min,  0.056 sec
     gradient                   ...        0 min,  0.012 sec
 * total energy  :  -102.3149152 Eh     change    :  -0.1210454E-02 Eh
   gradient norm :     0.0318802 Eh/a0  converged?    E=F G=F D=F
   time step     :     1.2500000 fs     power     :   0.5142288E-08
   step length   :     0.2115893 a0     speed     :   0.4094480E-02

........................................................................
.............................. CYCLE  150 ..............................
........................................................................

 iter      E             dE          RMSdq      gap      omega  full diag
   1   -103.7064744 -0.103706E+03  0.690E-02    0.95       0.0  T
   2   -103.7064793 -0.492556E-05  0.430E-02    0.94       1.0  T
   3   -103.7064631  0.162311E-04  0.332E-02    0.94       1.0  T
   4   -103.7065039 -0.407543E-04  0.493E-03    0.94       2.5  T
   5   -103.7065047 -0.833205E-06  0.274E-03    0.94       4.6  T
   6   -103.7065050 -0.336036E-06  0.937E-04    0.94      13.3  T
   7   -103.7065050 -0.883975E-08  0.394E-04    0.94      31.7  T
     SCC iter.                  ...        0 min,  0.054 sec
     gradient                   ...        0 min,  0.009 sec
 * total energy  :  -102.3167214 Eh     change    :  -0.1806229E-02 Eh
   gradient norm :     0.0238676 Eh/a0  converged?    E=F G=F D=F
   time step     :     1.2500000 fs     power     :   0.1185205E-07
   step length   :     0.2086734 a0     speed     :   0.4038054E-02

........................................................................
.............................. CYCLE  151 ..............................
........................................................................

 iter      E             dE          RMSdq      gap      omega  full diag
   1   -103.7114471 -0.103711E+03  0.746E-02    0.94       0.0  T
   2   -103.7114523 -0.521632E-05  0.488E-02    0.94       1.0  T
   3   -103.7114347  0.175677E-04  0.351E-02    0.94       1.0  T
   4   -103.7114811 -0.464102E-04  0.606E-03    0.94       2.1  T
   5   -103.7114827 -0.158170E-05  0.240E-03    0.94       5.2  T
   6   -103.7114829 -0.216047E-06  0.108E-03    0.94      11.6  T
   7   -103.7114829 -0.207926E-07  0.400E-04    0.94      31.3  T
   8   -103.7114829 -0.299350E-08  0.179E-04    0.94      69.9  T
     SCC iter.                  ...        0 min,  0.062 sec
     gradient                   ...        0 min,  0.012 sec
 * total energy  :  -102.3179946 Eh     change    :  -0.1273158E-02 Eh
   gradient norm :     0.0257092 Eh/a0  converged?    E=F G=F D=F
   time step     :     1.2500000 fs     power     :   0.3021859E-08
   step length   :     0.2094105 a0     speed     :   0.4052318E-02

........................................................................
.............................. CYCLE  152 ..............................
........................................................................

 iter      E             dE          RMSdq      gap      omega  full diag
   1   -103.7149951 -0.103715E+03  0.683E-02    0.93       0.0  T
   2   -103.7150025 -0.741066E-05  0.395E-02    0.93       1.0  T
   3   -103.7149904  0.120493E-04  0.176E-02    0.93       1.0  T
   4   -103.7150045 -0.141108E-04  0.437E-03    0.93       2.9  T
   5   -103.7150055 -0.965217E-06  0.131E-03    0.93       9.5  T
   6   -103.7150055 -0.886799E-08  0.727E-04    0.93      17.2  T
   7   -103.7150055 -0.123499E-07  0.372E-04    0.93      33.6  T
     SCC iter.                  ...        0 min,  0.054 sec
     gradient                   ...        0 min,  0.013 sec
 * total energy  :  -102.3191286 Eh     change    :  -0.1133997E-02 Eh
   gradient norm :     0.0231481 Eh/a0  converged?    E=F G=F D=F
   time step     :     1.2500000 fs     power     :   0.6322818E-08
   step length   :     0.2027037 a0     speed     :   0.3922534E-02

........................................................................
.............................. CYCLE  153 ..............................
........................................................................

 iter      E             dE          RMSdq      gap      omega  full diag
   1   -103.7169101 -0.103717E+03  0.718E-02    0.93       0.0  T
   2   -103.7169183 -0.819742E-05  0.442E-02    0.94       1.0  T
   3   -103.7168911  0.271875E-04  0.338E-02    0.94       1.0  T
   4   -103.7169374 -0.462937E-04  0.503E-03    0.93       2.5  T
   5   -103.7169383 -0.911041E-06  0.226E-03    0.94       5.5  T
   6   -103.7169385 -0.222832E-06  0.957E-04    0.94      13.1  T
   7   -103.7169385 -0.137211E-07  0.376E-04    0.94      33.2  T
     SCC iter.                  ...        0 min,  0.054 sec
     gradient                   ...        0 min,  0.013 sec
 * total energy  :  -102.3200104 Eh     change    :  -0.8818311E-03 Eh
   gradient norm :     0.0213623 Eh/a0  converged?    E=F G=F D=F
   time step     :     1.2500000 fs     power     :   0.5244944E-09
   step length   :     0.1990395 a0     speed     :   0.3851627E-02

........................................................................
.............................. CYCLE  154 ..............................
........................................................................

 iter      E             dE          RMSdq      gap      omega  full diag
   1   -103.7169139 -0.103717E+03  0.709E-02    0.93       0.0  T
   2   -103.7169189 -0.499340E-05  0.415E-02    0.93       1.0  T
   3   -103.7169042  0.147160E-04  0.167E-02    0.93       1.0  T
   4   -103.7169206 -0.163468E-04  0.406E-03    0.93       3.1  T
   5   -103.7169214 -0.859925E-06  0.135E-03    0.93       9.3  T
   6   -103.7169214 -0.515914E-08  0.803E-04    0.93      15.6  T
   7   -103.7169214 -0.228300E-07  0.286E-04    0.93      43.8  T
     SCC iter.                  ...        0 min,  0.056 sec
     gradient                   ...        0 min,  0.011 sec
 * total energy  :  -102.3204786 Eh     change    :  -0.4681671E-03 Eh
   gradient norm :     0.0224027 Eh/a0  converged?    E=F G=F D=F
   time step     :     1.2500000 fs     power     :  -0.1271087E-08
   step length   :     0.1896138 a0     speed     :   0.3669230E-02

........................................................................
.............................. CYCLE  155 ..............................
........................................................................
 * reset velocities

 iter      E             dE          RMSdq      gap      omega  full diag
   1   -103.7174903 -0.103717E+03  0.668E-03    0.93       0.0  T
   2   -103.7174905 -0.204401E-06  0.468E-03    0.93       2.7  T
   3   -103.7174909 -0.388981E-06  0.284E-03    0.93       4.4  T
   4   -103.7174911 -0.137060E-06  0.736E-04    0.93      17.0  T
   5   -103.7174911 -0.166732E-07  0.297E-04    0.93      42.1  T
     SCC iter.                  ...        0 min,  0.051 sec
     gradient                   ...        0 min,  0.011 sec
 * total energy  :  -102.3206432 Eh     change    :  -0.1646478E-03 Eh
   gradient norm :     0.0178551 Eh/a0  converged?    E=F G=F D=F
   time step     :     0.6250000 fs     power     :   0.3088074E-08
   step length   :     0.0082048 a0     speed     :   0.3175453E-03

........................................................................
.............................. CYCLE  156 ..............................
........................................................................

 iter      E             dE          RMSdq      gap      omega  full diag
   1   -103.7183965 -0.103718E+03  0.118E-02    0.93       0.0  T
   2   -103.7183971 -0.577064E-06  0.826E-03    0.93       1.5  T
   3   -103.7183983 -0.115379E-05  0.504E-03    0.93       2.5  T
   4   -103.7183987 -0.447678E-06  0.129E-03    0.93       9.7  T
   5   -103.7183988 -0.526479E-07  0.514E-04    0.93      24.3  T
   6   -103.7183988 -0.136639E-07  0.145E-04    0.93      86.4  T
     SCC iter.                  ...        0 min,  0.062 sec
     gradient                   ...        0 min,  0.011 sec
 * total energy  :  -102.3208468 Eh     change    :  -0.2036077E-03 Eh
   gradient norm :     0.0110370 Eh/a0  converged?    E=F G=F D=F
   time step     :     0.6250000 fs     power     :   0.3070808E-08
   step length   :     0.0147178 a0     speed     :   0.5696086E-03

........................................................................
.............................. CYCLE  157 ..............................
........................................................................

 iter      E             dE          RMSdq      gap      omega  full diag
   1   -103.7192503 -0.103719E+03  0.139E-02    0.93       0.0  T
   2   -103.7192510 -0.704283E-06  0.976E-03    0.93       1.3  T
   3   -103.7192524 -0.137018E-05  0.606E-03    0.93       2.1  T
   4   -103.7192531 -0.710109E-06  0.150E-03    0.93       8.3  T
   5   -103.7192532 -0.776426E-07  0.584E-04    0.93      21.4  T
   6   -103.7192532 -0.173540E-07  0.174E-04    0.93      71.8  T
     SCC iter.                  ...        0 min,  0.054 sec
     gradient                   ...        0 min,  0.011 sec
 * total energy  :  -102.3209585 Eh     change    :  -0.1117006E-03 Eh
   gradient norm :     0.0091097 Eh/a0  converged?    E=F G=F D=F
   time step     :     0.6250000 fs     power     :   0.6780501E-09
   step length   :     0.0183283 a0     speed     :   0.7093449E-03

........................................................................
.............................. CYCLE  158 ..............................
........................................................................

 iter      E             dE          RMSdq      gap      omega  full diag
   1   -103.7196532 -0.103720E+03  0.122E-02    0.93       0.0  T
   2   -103.7196537 -0.445885E-06  0.833E-03    0.93       1.5  T
   3   -103.7196541 -0.484576E-06  0.542E-03    0.93       2.3  T
   4   -103.7196549 -0.736181E-06  0.122E-03    0.93      10.2  T
   5   -103.7196549 -0.553850E-07  0.469E-04    0.93      26.7  T
   6   -103.7196549 -0.109037E-07  0.157E-04    0.93      79.6  T
     SCC iter.                  ...        0 min,  0.048 sec
     gradient                   ...        0 min,  0.011 sec
 * total energy  :  -102.3209829 Eh     change    :  -0.2433256E-04 Eh
   gradient norm :     0.0135420 Eh/a0  converged?    E=F G=F D=F
   time step     :     0.6250000 fs     power     :  -0.5814566E-09
   step length   :     0.0182055 a0     speed     :   0.7045926E-03

........................................................................
.............................. CYCLE  159 ..............................
........................................................................
 * reset velocities

 iter      E             dE          RMSdq      gap      omega  full diag
   1   -103.7195831 -0.103720E+03  0.909E-04    0.93       0.0  T
   2   -103.7195831 -0.371710E-08  0.643E-04    0.93      19.4  T
   3   -103.7195831 -0.783341E-08  0.386E-04    0.93      32.4  T
     SCC iter.                  ...        0 min,  0.025 sec
     gradient                   ...        0 min,  0.010 sec
 * total energy  :  -102.3209993 Eh     change    :  -0.1639295E-04 Eh
   gradient norm :     0.0129130 Eh/a0  converged?    E=F G=F D=F
   time step     :     0.3125000 fs     power     :   0.6795288E-09
   step length   :     0.0012399 a0     speed     :   0.9597466E-04

........................................................................
.............................. CYCLE  160 ..............................
........................................................................

 iter      E             dE          RMSdq      gap      omega  full diag
   1   -103.7194457 -0.103719E+03  0.183E-03    0.93       0.0  T
   2   -103.7194457 -0.169618E-07  0.125E-03    0.93      10.0  T
   3   -103.7194457 -0.211852E-07  0.785E-04    0.93      15.9  T
   4   -103.7194457 -0.116023E-07  0.205E-04    0.93      61.0  T
     SCC iter.                  ...        0 min,  0.033 sec
     gradient                   ...        0 min,  0.011 sec
 * total energy  :  -102.3210291 Eh     change    :  -0.2979912E-04 Eh
   gradient norm :     0.0117385 Eh/a0  converged?    E=F G=F D=F
   time step     :     0.3125000 fs     power     :   0.1202893E-08
   step length   :     0.0024219 a0     speed     :   0.1874687E-03

........................................................................
.............................. CYCLE  161 ..............................
........................................................................

 iter      E             dE          RMSdq      gap      omega  full diag
   1   -103.7192557 -0.103719E+03  0.253E-03    0.93       0.0  T
   2   -103.7192557 -0.257460E-07  0.179E-03    0.93       7.0  T
   3   -103.7192558 -0.555378E-07  0.109E-03    0.93      11.5  T
   4   -103.7192558 -0.204513E-07  0.312E-04    0.93      40.1  T
   5   -103.7192558 -0.302192E-08  0.130E-04    0.93      96.2  T
     SCC iter.                  ...        0 min,  0.040 sec
     gradient                   ...        0 min,  0.011 sec
 * total energy  :  -102.3210671 Eh     change    :  -0.3803576E-04 Eh
   gradient norm :     0.0102085 Eh/a0  converged?    E=F G=F D=F
   time step     :     0.3125000 fs     power     :   0.1491105E-08
   step length   :     0.0034938 a0     speed     :   0.2704347E-03
 * RMSD in coord.:     0.3256473 a0     energy gain  -0.3828709E-01 Eh

........................................................................
.............................. CYCLE  162 ..............................
........................................................................

 iter      E             dE          RMSdq      gap      omega  full diag
   1   -103.7190836 -0.103719E+03  0.239E-03    0.93       0.0  T
   2   -103.7190836 -0.234110E-07  0.168E-03    0.93       7.4  T
   3   -103.7190837 -0.460144E-07  0.103E-03    0.93      12.1  T
   4   -103.7190837 -0.188626E-07  0.278E-04    0.93      45.0  T
   5   -103.7190837 -0.242940E-08  0.118E-04    0.93     106.3  T
     SCC iter.                  ...        0 min,  0.040 sec
     gradient                   ...        0 min,  0.013 sec
 * total energy  :  -102.3210988 Eh     change    :  -0.3168811E-04 Eh
   gradient norm :     0.0089578 Eh/a0  converged?    E=F G=F D=F
   time step     :     0.2500000 fs     power     :   0.1546346E-08
   step length   :     0.0033832 a0     speed     :   0.3273412E-03

........................................................................
.............................. CYCLE  163 ..............................
........................................................................

 iter      E             dE          RMSdq      gap      omega  full diag
   1   -103.7189047 -0.103719E+03  0.265E-03    0.93       0.0  T
   2   -103.7189047 -0.271612E-07  0.186E-03    0.93       6.7  T
   3   -103.7189048 -0.526360E-07  0.115E-03    0.93      10.9  T
   4   -103.7189048 -0.244380E-07  0.308E-04    0.93      40.6  T
   5   -103.7189048 -0.309579E-08  0.129E-04    0.93      96.8  T
     SCC iter.                  ...        0 min,  0.048 sec
     gradient                   ...        0 min,  0.011 sec
 * total energy  :  -102.3211297 Eh     change    :  -0.3090903E-04 Eh
   gradient norm :     0.0078785 Eh/a0  converged?    E=F G=F D=F
   time step     :     0.2500000 fs     power     :   0.1479148E-08
   step length   :     0.0038820 a0     speed     :   0.3756038E-03

........................................................................
.............................. CYCLE  164 ..............................
........................................................................

 iter      E             dE          RMSdq      gap      omega  full diag
   1   -103.7187349 -0.103719E+03  0.278E-03    0.93       0.0  T
   2   -103.7187349 -0.274392E-07  0.195E-03    0.93       6.4  T
   3   -103.7187350 -0.510098E-07  0.122E-03    0.93      10.3  T
   4   -103.7187350 -0.291833E-07  0.321E-04    0.93      39.0  T
   5   -103.7187350 -0.351540E-08  0.132E-04    0.93      94.4  T
     SCC iter.                  ...        0 min,  0.053 sec
     gradient                   ...        0 min,  0.011 sec
 * total energy  :  -102.3211583 Eh     change    :  -0.2858790E-04 Eh
   gradient norm :     0.0071968 Eh/a0  converged?    E=F G=F D=F
   time step     :     0.2500000 fs     power     :   0.1348250E-08
   step length   :     0.0042825 a0     speed     :   0.4143559E-03

........................................................................
.............................. CYCLE  165 ..............................
........................................................................

 iter      E             dE          RMSdq      gap      omega  full diag
   1   -103.7185907 -0.103719E+03  0.277E-03    0.93       0.0  T
   2   -103.7185908 -0.240840E-07  0.192E-03    0.93       6.5  T
   3   -103.7185908 -0.385816E-07  0.123E-03    0.93      10.2  T
   4   -103.7185908 -0.329485E-07  0.313E-04    0.93      39.9  T
   5   -103.7185908 -0.355098E-08  0.126E-04    0.93      99.0  T
     SCC iter.                  ...        0 min,  0.053 sec
     gradient                   ...        0 min,  0.010 sec
 * total energy  :  -102.3211843 Eh     change    :  -0.2606266E-04 Eh
   gradient norm :     0.0070293 Eh/a0  converged?    E=F G=F D=F
   time step     :     0.2500000 fs     power     :   0.1228660E-08
   step length   :     0.0045802 a0     speed     :   0.4431544E-03

........................................................................
.............................. CYCLE  166 ..............................
........................................................................

 iter      E             dE          RMSdq      gap      omega  full diag
   1   -103.7184858 -0.103718E+03  0.262E-03    0.93       0.0  T
   2   -103.7184858 -0.182790E-07  0.178E-03    0.93       7.0  T
   3   -103.7184858 -0.167979E-07  0.119E-03    0.93      10.5  T
   4   -103.7184859 -0.363142E-07  0.284E-04    0.93      44.0  T
   5   -103.7184859 -0.315077E-08  0.111E-04    0.93     113.1  T
     SCC iter.                  ...        0 min,  0.055 sec
     gradient                   ...        0 min,  0.011 sec
 * total energy  :  -102.3212090 Eh     change    :  -0.2464977E-04 Eh
   gradient norm :     0.0072677 Eh/a0  converged?    E=F G=F D=F
   time step     :     0.2500000 fs     power     :   0.1186360E-08
   step length   :     0.0047860 a0     speed     :   0.4630665E-03

........................................................................
.............................. CYCLE  167 ..............................
........................................................................

 iter      E             dE          RMSdq      gap      omega  full diag
   1   -103.7184231 -0.103718E+03  0.264E-03    0.93       0.0  T
   2   -103.7184231 -0.146189E-07  0.174E-03    0.93       7.2  T
   3   -103.7184231  0.123823E-07  0.123E-03    0.93      10.2  T
   4   -103.7184231 -0.499129E-07  0.263E-04    0.93      47.6  T
   5   -103.7184231 -0.295864E-08  0.961E-05    0.93     130.1  T
     SCC iter.                  ...        0 min,  0.060 sec
     gradient                   ...        0 min,  0.012 sec
 * total energy  :  -102.3212368 Eh     change    :  -0.2783137E-04 Eh
   gradient norm :     0.0077058 Eh/a0  converged?    E=F G=F D=F
   time step     :     0.2750000 fs     power     :   0.1252793E-08
   step length   :     0.0054661 a0     speed     :   0.4807968E-03

........................................................................
.............................. CYCLE  168 ..............................
........................................................................

 iter      E             dE          RMSdq      gap      omega  full diag
   1   -103.7184149 -0.103718E+03  0.266E-03    0.93       0.0  T
   2   -103.7184149 -0.107281E-07  0.167E-03    0.93       7.5  T
   3   -103.7184149  0.487865E-07  0.122E-03    0.93      10.2  T
   4   -103.7184149 -0.671070E-07  0.225E-04    0.93      55.7  T
   5   -103.7184149 -0.244042E-08  0.723E-05    0.93     172.8  T
     SCC iter.                  ...        0 min,  0.056 sec
     gradient                   ...        0 min,  0.011 sec
 * total energy  :  -102.3212709 Eh     change    :  -0.3413158E-04 Eh
   gradient norm :     0.0080918 Eh/a0  converged?    E=F G=F D=F
   time step     :     0.3025000 fs     power     :   0.1440927E-08
   step length   :     0.0062704 a0     speed     :   0.5014034E-03

........................................................................
.............................. CYCLE  169 ..............................
........................................................................

 iter      E             dE          RMSdq      gap      omega  full diag
   1   -103.7184676 -0.103718E+03  0.282E-03    0.93       0.0  T
   2   -103.7184676 -0.941625E-08  0.169E-03    0.93       7.4  T
   3   -103.7184676  0.504776E-07  0.104E-03    0.93      12.1  T
   4   -103.7184676 -0.568981E-07  0.204E-04    0.93      61.4  T
   5   -103.7184676 -0.220940E-08  0.551E-05    0.93     226.8  T
     SCC iter.                  ...        0 min,  0.058 sec
     gradient                   ...        0 min,  0.012 sec
 * total energy  :  -102.3213149 Eh     change    :  -0.4399067E-04 Eh
   gradient norm :     0.0081924 Eh/a0  converged?    E=F G=F D=F
   time step     :     0.3327500 fs     power     :   0.1719581E-08
   step length   :     0.0072950 a0     speed     :   0.5303025E-03

........................................................................
.............................. CYCLE  170 ..............................
........................................................................

 iter      E             dE          RMSdq      gap      omega  full diag
   1   -103.7185795 -0.103719E+03  0.326E-03    0.93       0.0  T
   2   -103.7185795 -0.141391E-07  0.195E-03    0.93       6.4  T
   3   -103.7185795  0.668198E-07  0.131E-03    0.93       9.5  T
   4   -103.7185796 -0.857171E-07  0.177E-04    0.93      70.8  T
   5   -103.7185796 -0.139799E-08  0.624E-05    0.93     200.3  T
     SCC iter.                  ...        0 min,  0.051 sec
     gradient                   ...        0 min,  0.013 sec
 * total energy  :  -102.3213715 Eh     change    :  -0.5657152E-04 Eh
   gradient norm :     0.0078547 Eh/a0  converged?    E=F G=F D=F
   time step     :     0.3660250 fs     power     :   0.2012108E-08
   step length   :     0.0086413 a0     speed     :   0.5710628E-03

........................................................................
.............................. CYCLE  171 ..............................
........................................................................

 iter      E             dE          RMSdq      gap      omega  full diag
   1   -103.7187386 -0.103719E+03  0.402E-03    0.93       0.0  T
   2   -103.7187386 -0.276294E-07  0.249E-03    0.93       5.0  T
   3   -103.7187386  0.710673E-07  0.180E-03    0.93       6.9  T
   4   -103.7187387 -0.133280E-06  0.236E-04    0.93      53.0  T
   5   -103.7187387 -0.224615E-08  0.853E-05    0.93     146.6  T
     SCC iter.                  ...        0 min,  0.045 sec
     gradient                   ...        0 min,  0.011 sec
 * total energy  :  -102.3214410 Eh     change    :  -0.6945949E-04 Eh
   gradient norm :     0.0070836 Eh/a0  converged?    E=F G=F D=F
   time step     :     0.4026275 fs     power     :   0.2214062E-08
   step length   :     0.0103863 a0     speed     :   0.6239802E-03

........................................................................
.............................. CYCLE  172 ..............................
........................................................................

 iter      E             dE          RMSdq      gap      omega  full diag
   1   -103.7189224 -0.103719E+03  0.495E-03    0.93       0.0  T
   2   -103.7189224 -0.503605E-07  0.315E-03    0.93       4.0  T
   3   -103.7189224  0.568375E-07  0.223E-03    0.93       5.6  T
   4   -103.7189225 -0.182861E-06  0.336E-04    0.93      37.2  T
   5   -103.7189226 -0.416709E-08  0.130E-04    0.93      96.0  T
     SCC iter.                  ...        0 min,  0.045 sec
     gradient                   ...        0 min,  0.011 sec
 * total energy  :  -102.3215203 Eh     change    :  -0.7937649E-04 Eh
   gradient norm :     0.0062100 Eh/a0  converged?    E=F G=F D=F
   time step     :     0.4428903 fs     power     :   0.2245683E-08
   step length   :     0.0125579 a0     speed     :   0.6858590E-03

........................................................................
.............................. CYCLE  173 ..............................
........................................................................

 iter      E             dE          RMSdq      gap      omega  full diag
   1   -103.7191039 -0.103719E+03  0.576E-03    0.93       0.0  T
   2   -103.7191040 -0.702350E-07  0.368E-03    0.93       3.4  T
   3   -103.7191039  0.877618E-07  0.260E-03    0.93       4.8  T
   4   -103.7191042 -0.253211E-06  0.405E-04    0.93      30.9  T
   5   -103.7191042 -0.593110E-08  0.158E-04    0.93      79.1  T
     SCC iter.                  ...        0 min,  0.045 sec
     gradient                   ...        0 min,  0.012 sec
 * total energy  :  -102.3216055 Eh     change    :  -0.8513937E-04 Eh
   gradient norm :     0.0059519 Eh/a0  converged?    E=F G=F D=F
   time step     :     0.4871793 fs     power     :   0.2149695E-08
   step length   :     0.0151095 a0     speed     :   0.7501965E-03

........................................................................
.............................. CYCLE  174 ..............................
........................................................................

 iter      E             dE          RMSdq      gap      omega  full diag
   1   -103.7192687 -0.103719E+03  0.619E-03    0.93       0.0  T
   2   -103.7192687 -0.657606E-07  0.385E-03    0.93       3.2  T
   3   -103.7192685  0.214832E-06  0.273E-03    0.93       4.6  T
   4   -103.7192689 -0.338828E-06  0.375E-04    0.93      33.3  T
   5   -103.7192689 -0.567448E-08  0.135E-04    0.93      92.3  T
     SCC iter.                  ...        0 min,  0.048 sec
     gradient                   ...        0 min,  0.013 sec
 * total energy  :  -102.3216974 Eh     change    :  -0.9193029E-04 Eh
   gradient norm :     0.0064694 Eh/a0  converged?    E=F G=F D=F
   time step     :     0.5358972 fs     power     :   0.2138479E-08
   step length   :     0.0179012 a0     speed     :   0.8080068E-03

........................................................................
.............................. CYCLE  175 ..............................
........................................................................

 iter      E             dE          RMSdq      gap      omega  full diag
   1   -103.7194237 -0.103719E+03  0.650E-03    0.93       0.0  T
   2   -103.7194237 -0.401446E-07  0.389E-03    0.93       3.2  T
   3   -103.7194234  0.313567E-06  0.249E-03    0.93       5.0  T
   4   -103.7194238 -0.368112E-06  0.345E-04    0.93      36.2  T
   5   -103.7194238 -0.559781E-08  0.140E-04    0.93      89.3  T
     SCC iter.                  ...        0 min,  0.057 sec
     gradient                   ...        0 min,  0.012 sec
 * total energy  :  -102.3218056 Eh     change    :  -0.1081634E-03 Eh
   gradient norm :     0.0067452 Eh/a0  converged?    E=F G=F D=F
   time step     :     0.5894869 fs     power     :   0.2356643E-08
   step length   :     0.0209648 a0     speed     :   0.8602655E-03

........................................................................
.............................. CYCLE  176 ..............................
........................................................................

 iter      E             dE          RMSdq      gap      omega  full diag
   1   -103.7195769 -0.103720E+03  0.736E-03    0.93       0.0  T
   2   -103.7195770 -0.375982E-07  0.441E-03    0.93       2.8  T
   3   -103.7195765  0.484245E-06  0.316E-03    0.93       4.0  T
   4   -103.7195770 -0.564835E-06  0.432E-04    0.93      29.0  T
   5   -103.7195770 -0.886041E-08  0.164E-04    0.93      76.1  T
     SCC iter.                  ...        0 min,  0.055 sec
     gradient                   ...        0 min,  0.012 sec
 * total energy  :  -102.3219379 Eh     change    :  -0.1323445E-03 Eh
   gradient norm :     0.0060980 Eh/a0  converged?    E=F G=F D=F
   time step     :     0.6484356 fs     power     :   0.2617267E-08
   step length   :     0.0246917 a0     speed     :   0.9210822E-03

........................................................................
.............................. CYCLE  177 ..............................
........................................................................

 iter      E             dE          RMSdq      gap      omega  full diag
   1   -103.7197132 -0.103720E+03  0.883E-03    0.93       0.0  T
   2   -103.7197133 -0.809850E-07  0.537E-03    0.93       2.3  T
   3   -103.7197126  0.638385E-06  0.411E-03    0.93       3.0  T
   4   -103.7197134 -0.823659E-06  0.648E-04    0.93      19.3  T
   5   -103.7197135 -0.198820E-07  0.236E-04    0.93      53.1  T
     SCC iter.                  ...        0 min,  0.046 sec
     gradient                   ...        0 min,  0.011 sec
 * total energy  :  -102.3220893 Eh     change    :  -0.1513561E-03 Eh
   gradient norm :     0.0054127 Eh/a0  converged?    E=F G=F D=F
   time step     :     0.7132792 fs     power     :   0.2642335E-08
   step length   :     0.0293984 a0     speed     :   0.9969633E-03

........................................................................
.............................. CYCLE  178 ..............................
........................................................................

 iter      E             dE          RMSdq      gap      omega  full diag
   1   -103.7198226 -0.103720E+03  0.998E-03    0.93       0.0  T
   2   -103.7198227 -0.118682E-06  0.596E-03    0.93       2.1  T
   3   -103.7198219  0.771449E-06  0.419E-03    0.93       3.0  T
   4   -103.7198228 -0.919923E-06  0.713E-04    0.93      17.5  T
   5   -103.7198229 -0.255051E-07  0.249E-04    0.93      50.2  T
     SCC iter.                  ...        0 min,  0.048 sec
     gradient                   ...        0 min,  0.012 sec
 * total energy  :  -102.3222541 Eh     change    :  -0.1648555E-03 Eh
   gradient norm :     0.0058544 Eh/a0  converged?    E=F G=F D=F
   time step     :     0.7846071 fs     power     :   0.2619324E-08
   step length   :     0.0349215 a0     speed     :   0.1076602E-02

........................................................................
.............................. CYCLE  179 ..............................
........................................................................

 iter      E             dE          RMSdq      gap      omega  full diag
   1   -103.7200129 -0.103720E+03  0.108E-02    0.93       0.0  T
   2   -103.7200130 -0.109260E-06  0.650E-03    0.93       1.9  T
   3   -103.7200121  0.917992E-06  0.437E-03    0.93       2.9  T
   4   -103.7200132 -0.109588E-05  0.597E-04    0.93      20.9  T
   5   -103.7200132 -0.176803E-07  0.241E-04    0.93      51.8  T
   6   -103.7200132 -0.146733E-08  0.127E-04    0.93      98.3  T
     SCC iter.                  ...        0 min,  0.048 sec
     gradient                   ...        0 min,  0.010 sec
 * total energy  :  -102.3224468 Eh     change    :  -0.1926370E-03 Eh
   gradient norm :     0.0058946 Eh/a0  converged?    E=F G=F D=F
   time step     :     0.8630678 fs     power     :   0.2861580E-08
   step length   :     0.0409785 a0     speed     :   0.1148486E-02

........................................................................
.............................. CYCLE  180 ..............................
........................................................................

 iter      E             dE          RMSdq      gap      omega  full diag
   1   -103.7204441 -0.103720E+03  0.126E-02    0.93       0.0  T
   2   -103.7204443 -0.160111E-06  0.785E-03    0.92       1.6  T
   3   -103.7204433  0.990682E-06  0.572E-03    0.92       2.2  T
   4   -103.7204448 -0.151571E-05  0.674E-04    0.92      18.5  T
   5   -103.7204448 -0.205973E-07  0.298E-04    0.92      42.0  T
   6   -103.7204448 -0.288563E-08  0.146E-04    0.92      85.4  T
     SCC iter.                  ...        0 min,  0.050 sec
     gradient                   ...        0 min,  0.010 sec
 * total energy  :  -102.3226742 Eh     change    :  -0.2274621E-03 Eh
   gradient norm :     0.0051258 Eh/a0  converged?    E=F G=F D=F
   time step     :     0.9493746 fs     power     :   0.3011318E-08
   step length   :     0.0483436 a0     speed     :   0.1231732E-02

........................................................................
.............................. CYCLE  181 ..............................
........................................................................

 iter      E             dE          RMSdq      gap      omega  full diag
   1   -103.7209310 -0.103721E+03  0.146E-02    0.92       0.0  T
   2   -103.7209312 -0.171765E-06  0.903E-03    0.92       1.4  T
   3   -103.7209296  0.164874E-05  0.674E-03    0.92       1.9  T
   4   -103.7209318 -0.227883E-05  0.890E-04    0.92      14.1  T
   5   -103.7209319 -0.373884E-07  0.358E-04    0.92      34.9  T
   6   -103.7209319 -0.396180E-08  0.178E-04    0.92      70.4  T
     SCC iter.                  ...        0 min,  0.049 sec
     gradient                   ...        0 min,  0.012 sec
 * total energy  :  -102.3229265 Eh     change    :  -0.2522172E-03 Eh
   gradient norm :     0.0056065 Eh/a0  converged?    E=F G=F D=F
   time step     :     1.0443120 fs     power     :   0.3016917E-08
   step length   :     0.0573390 a0     speed     :   0.1328113E-02

........................................................................
.............................. CYCLE  182 ..............................
........................................................................

 iter      E             dE          RMSdq      gap      omega  full diag
   1   -103.7209437 -0.103721E+03  0.165E-02    0.92       0.0  T
   2   -103.7209438 -0.888312E-07  0.101E-02    0.92       1.2  T
   3   -103.7209411  0.275955E-05  0.798E-03    0.92       1.6  T
   4   -103.7209446 -0.349120E-05  0.937E-04    0.92      13.3  T
   5   -103.7209446 -0.374897E-07  0.390E-04    0.92      32.0  T
   6   -103.7209446 -0.396841E-08  0.205E-04    0.92      60.9  T
     SCC iter.                  ...        0 min,  0.049 sec
     gradient                   ...        0 min,  0.011 sec
 * total energy  :  -102.3232225 Eh     change    :  -0.2960770E-03 Eh
   gradient norm :     0.0051349 Eh/a0  converged?    E=F G=F D=F
   time step     :     1.1487432 fs     power     :   0.3281554E-08
   step length   :     0.0672960 a0     speed     :   0.1417038E-02

........................................................................
.............................. CYCLE  183 ..............................
........................................................................

 iter      E             dE          RMSdq      gap      omega  full diag
   1   -103.7208278 -0.103721E+03  0.193E-02    0.92       0.0  T
   2   -103.7208279 -0.134154E-06  0.118E-02    0.92       1.1  T
   3   -103.7208240  0.391648E-05  0.949E-03    0.92       1.3  T
   4   -103.7208289 -0.483968E-05  0.107E-03    0.92      11.7  T
   5   -103.7208289 -0.452273E-07  0.441E-04    0.92      28.3  T
   6   -103.7208289 -0.420887E-08  0.252E-04    0.92      49.5  T
     SCC iter.                  ...        0 min,  0.052 sec
     gradient                   ...        0 min,  0.010 sec
 * total energy  :  -102.3235530 Eh     change    :  -0.3305020E-03 Eh
   gradient norm :     0.0052163 Eh/a0  converged?    E=F G=F D=F
   time step     :     1.2500000 fs     power     :   0.3264661E-08
   step length   :     0.0786937 a0     speed     :   0.1522808E-02

........................................................................
.............................. CYCLE  184 ..............................
........................................................................

 iter      E             dE          RMSdq      gap      omega  full diag
   1   -103.7206849 -0.103721E+03  0.195E-02    0.92       0.0  T
   2   -103.7206852 -0.308048E-06  0.119E-02    0.92       1.1  T
   3   -103.7206820  0.319734E-05  0.867E-03    0.92       1.4  T
   4   -103.7206860 -0.402757E-05  0.113E-03    0.92      11.1  T
   5   -103.7206861 -0.596672E-07  0.462E-04    0.92      27.0  T
   6   -103.7206861 -0.459481E-08  0.262E-04    0.92      47.7  T
     SCC iter.                  ...        0 min,  0.050 sec
     gradient                   ...        0 min,  0.012 sec
 * total energy  :  -102.3238932 Eh     change    :  -0.3402104E-03 Eh
   gradient norm :     0.0049239 Eh/a0  converged?    E=F G=F D=F
   time step     :     1.2500000 fs     power     :   0.3441943E-08
   step length   :     0.0832934 a0     speed     :   0.1611818E-02

........................................................................
.............................. CYCLE  185 ..............................
........................................................................

 iter      E             dE          RMSdq      gap      omega  full diag
   1   -103.7205627 -0.103721E+03  0.205E-02    0.92       0.0  T
   2   -103.7205630 -0.211483E-06  0.127E-02    0.91       1.0  T
   3   -103.7205594  0.358729E-05  0.999E-03    0.92       1.3  T
   4   -103.7205642 -0.481896E-05  0.122E-03    0.92      10.3  T
   5   -103.7205642 -0.624390E-07  0.562E-04    0.91      22.2  T
   6   -103.7205643 -0.103971E-07  0.269E-04    0.91      46.4  T
     SCC iter.                  ...        0 min,  0.051 sec
     gradient                   ...        0 min,  0.011 sec
 * total energy  :  -102.3242361 Eh     change    :  -0.3428214E-03 Eh
   gradient norm :     0.0051920 Eh/a0  converged?    E=F G=F D=F
   time step     :     1.2500000 fs     power     :   0.3382151E-08
   step length   :     0.0879690 a0     speed     :   0.1702295E-02

........................................................................
.............................. CYCLE  186 ..............................
........................................................................

 iter      E             dE          RMSdq      gap      omega  full diag
   1   -103.7201841 -0.103720E+03  0.208E-02    0.91       0.0  T
   2   -103.7201849 -0.803590E-06  0.124E-02    0.91       1.0  T
   3   -103.7201817  0.312973E-05  0.844E-03    0.91       1.5  T
   4   -103.7201855 -0.378201E-05  0.162E-03    0.91       7.7  T
   5   -103.7201856 -0.126464E-06  0.601E-04    0.91      20.8  T
   6   -103.7201857 -0.116364E-07  0.286E-04    0.91      43.7  T
     SCC iter.                  ...        0 min,  0.050 sec
     gradient                   ...        0 min,  0.010 sec
 * total energy  :  -102.3245830 Eh     change    :  -0.3469379E-03 Eh
   gradient norm :     0.0056864 Eh/a0  converged?    E=F G=F D=F
   time step     :     1.2500000 fs     power     :   0.3441847E-08
   step length   :     0.0916982 a0     speed     :   0.1774458E-02

........................................................................
.............................. CYCLE  187 ..............................
........................................................................

 iter      E             dE          RMSdq      gap      omega  full diag
   1   -103.7205655 -0.103721E+03  0.213E-02    0.92       0.0  T
   2   -103.7205670 -0.151241E-05  0.133E-02    0.92       1.0  T
   3   -103.7205639  0.308410E-05  0.103E-02    0.92       1.2  T
   4   -103.7205684 -0.447477E-05  0.207E-03    0.92       6.0  T
   5   -103.7205686 -0.150965E-06  0.605E-04    0.92      20.7  T
   6   -103.7205686 -0.121163E-07  0.308E-04    0.92      40.6  T
     SCC iter.                  ...        0 min,  0.053 sec
     gradient                   ...        0 min,  0.011 sec
 * total energy  :  -102.3249286 Eh     change    :  -0.3455812E-03 Eh
   gradient norm :     0.0073206 Eh/a0  converged?    E=F G=F D=F
   time step     :     1.2500000 fs     power     :   0.3219994E-08
   step length   :     0.0948552 a0     speed     :   0.1835550E-02

........................................................................
.............................. CYCLE  188 ..............................
........................................................................

 iter      E             dE          RMSdq      gap      omega  full diag
   1   -103.7197603 -0.103720E+03  0.223E-02    0.91       0.0  T
   2   -103.7197650 -0.468918E-05  0.133E-02    0.91       1.0  T
   3   -103.7197640  0.101185E-05  0.795E-03    0.91       1.6  T
   4   -103.7197652 -0.121959E-05  0.399E-03    0.91       3.1  T
   5   -103.7197660 -0.770238E-06  0.678E-04    0.91      18.4  T
   6   -103.7197660 -0.165034E-07  0.355E-04    0.91      35.2  T
     SCC iter.                  ...        0 min,  0.050 sec
     gradient                   ...        0 min,  0.011 sec
 * total energy  :  -102.3252753 Eh     change    :  -0.3467078E-03 Eh
   gradient norm :     0.0087708 Eh/a0  converged?    E=F G=F D=F
   time step     :     1.2500000 fs     power     :   0.2971411E-08
   step length   :     0.0966430 a0     speed     :   0.1870146E-02

........................................................................
.............................. CYCLE  189 ..............................
........................................................................

 iter      E             dE          RMSdq      gap      omega  full diag
   1   -103.7213136 -0.103721E+03  0.224E-02    0.92       0.0  T
   2   -103.7213189 -0.522337E-05  0.140E-02    0.91       1.0  T
   3   -103.7213183  0.546055E-06  0.999E-03    0.92       1.3  T
   4   -103.7213208 -0.245998E-05  0.386E-03    0.92       3.2  T
   5   -103.7213212 -0.447463E-06  0.991E-04    0.92      12.6  T
   6   -103.7213213 -0.447789E-07  0.370E-04    0.92      33.8  T
     SCC iter.                  ...        0 min,  0.053 sec
     gradient                   ...        0 min,  0.011 sec
 * total energy  :  -102.3256337 Eh     change    :  -0.3584114E-03 Eh
   gradient norm :     0.0082597 Eh/a0  converged?    E=F G=F D=F
   time step     :     1.2500000 fs     power     :   0.2955027E-08
   step length   :     0.0976519 a0     speed     :   0.1889669E-02

........................................................................
.............................. CYCLE  190 ..............................
........................................................................

 iter      E             dE          RMSdq      gap      omega  full diag
   1   -103.7205604 -0.103721E+03  0.219E-02    0.91       0.0  T
   2   -103.7205660 -0.553721E-05  0.127E-02    0.91       1.0  T
   3   -103.7205656  0.421653E-06  0.682E-03    0.91       1.8  T
   4   -103.7205657 -0.112762E-06  0.411E-03    0.91       3.0  T
   5   -103.7205666 -0.902366E-06  0.587E-04    0.91      21.3  T
   6   -103.7205666 -0.102616E-07  0.302E-04    0.91      41.4  T
     SCC iter.                  ...        0 min,  0.056 sec
     gradient                   ...        0 min,  0.011 sec
 * total energy  :  -102.3259966 Eh     change    :  -0.3629230E-03 Eh
   gradient norm :     0.0068570 Eh/a0  converged?    E=F G=F D=F
   time step     :     1.2500000 fs     power     :   0.3244707E-08
   step length   :     0.0985301 a0     speed     :   0.1906664E-02

........................................................................
.............................. CYCLE  191 ..............................
........................................................................

 iter      E             dE          RMSdq      gap      omega  full diag
   1   -103.7223598 -0.103722E+03  0.208E-02    0.92       0.0  T
   2   -103.7223633 -0.356433E-05  0.126E-02    0.91       1.0  T
   3   -103.7223616  0.176561E-05  0.879E-03    0.92       1.4  T
   4   -103.7223640 -0.247414E-05  0.345E-03    0.91       3.6  T
   5   -103.7223645 -0.458773E-06  0.608E-04    0.91      20.6  T
   6   -103.7223645 -0.115302E-07  0.313E-04    0.91      40.0  T
     SCC iter.                  ...        0 min,  0.050 sec
     gradient                   ...        0 min,  0.013 sec
 * total energy  :  -102.3263615 Eh     change    :  -0.3648952E-03 Eh
   gradient norm :     0.0059491 Eh/a0  converged?    E=F G=F D=F
   time step     :     1.2500000 fs     power     :   0.3461444E-08
   step length   :     0.1001004 a0     speed     :   0.1937050E-02

........................................................................
.............................. CYCLE  192 ..............................
........................................................................

 iter      E             dE          RMSdq      gap      omega  full diag
   1   -103.7217782 -0.103722E+03  0.216E-02    0.92       0.0  T
   2   -103.7217838 -0.567399E-05  0.121E-02    0.91       1.0  T
   3   -103.7217838  0.993926E-08  0.580E-03    0.91       2.2  T
   4   -103.7217836  0.214758E-06  0.300E-03    0.91       4.2  T
   5   -103.7217841 -0.523979E-06  0.637E-04    0.91      19.6  T
   6   -103.7217841 -0.129981E-07  0.294E-04    0.91      42.5  T
     SCC iter.                  ...        0 min,  0.064 sec
     gradient                   ...        0 min,  0.013 sec
 * total energy  :  -102.3267252 Eh     change    :  -0.3636761E-03 Eh
   gradient norm :     0.0063952 Eh/a0  converged?    E=F G=F D=F
   time step     :     1.2500000 fs     power     :   0.3486677E-08
   step length   :     0.1022859 a0     speed     :   0.1979342E-02

........................................................................
.............................. CYCLE  193 ..............................
........................................................................

 iter      E             dE          RMSdq      gap      omega  full diag
   1   -103.7239172 -0.103724E+03  0.229E-02    0.92       0.0  T
   2   -103.7239266 -0.941508E-05  0.133E-02    0.91       1.0  T
   3   -103.7239261  0.512667E-06  0.867E-03    0.92       1.4  T
   4   -103.7239268 -0.693514E-06  0.550E-03    0.91       2.3  T
   5   -103.7239280 -0.122565E-05  0.728E-04    0.91      17.2  T
   6   -103.7239280 -0.185621E-07  0.375E-04    0.91      33.3  T
   7   -103.7239280 -0.307523E-08  0.197E-04    0.91      63.5  T
     SCC iter.                  ...        0 min,  0.057 sec
     gradient                   ...        0 min,  0.012 sec
 * total energy  :  -102.3270869 Eh     change    :  -0.3617276E-03 Eh
   gradient norm :     0.0078107 Eh/a0  converged?    E=F G=F D=F
   time step     :     1.2500000 fs     power     :   0.3287301E-08
   step length   :     0.1041418 a0     speed     :   0.2015257E-02

........................................................................
.............................. CYCLE  194 ..............................
........................................................................

 iter      E             dE          RMSdq      gap      omega  full diag
   1   -103.7226693 -0.103723E+03  0.263E-02    0.92       0.0  T
   2   -103.7226889 -0.196066E-04  0.138E-02    0.91       1.0  T
   3   -103.7226894 -0.455354E-06  0.774E-03    0.91       1.6  T
   4   -103.7226890  0.377048E-06  0.312E-03    0.91       4.0  T
   5   -103.7226895 -0.469972E-06  0.940E-04    0.91      13.3  T
   6   -103.7226895 -0.354545E-07  0.386E-04    0.91      32.4  T
     SCC iter.                  ...        0 min,  0.063 sec
     gradient                   ...        0 min,  0.012 sec
 * total energy  :  -102.3274442 Eh     change    :  -0.3572732E-03 Eh
   gradient norm :     0.0090929 Eh/a0  converged?    E=F G=F D=F
   time step     :     1.2500000 fs     power     :   0.2950704E-08
   step length   :     0.1051203 a0     speed     :   0.2034190E-02

........................................................................
.............................. CYCLE  195 ..............................
........................................................................

 iter      E             dE          RMSdq      gap      omega  full diag
   1   -103.7248455 -0.103725E+03  0.264E-02    0.91       0.0  T
   2   -103.7248654 -0.198754E-04  0.146E-02    0.91       1.0  T
   3   -103.7248657 -0.348968E-06  0.916E-03    0.92       1.4  T
   4   -103.7248649  0.783995E-06  0.725E-03    0.91       1.7  T
   5   -103.7248672 -0.222533E-05  0.919E-04    0.91      13.6  T
   6   -103.7248672 -0.286483E-07  0.414E-04    0.91      30.2  T
   7   -103.7248672 -0.296882E-08  0.224E-04    0.91      55.7  T
     SCC iter.                  ...        0 min,  0.064 sec
     gradient                   ...        0 min,  0.013 sec
 * total energy  :  -102.3278091 Eh     change    :  -0.3649331E-03 Eh
   gradient norm :     0.0083370 Eh/a0  converged?    E=F G=F D=F
   time step     :     1.2500000 fs     power     :   0.2955703E-08
   step length   :     0.1053488 a0     speed     :   0.2038613E-02

........................................................................
.............................. CYCLE  196 ..............................
........................................................................

 iter      E             dE          RMSdq      gap      omega  full diag
   1   -103.7241302 -0.103724E+03  0.246E-02    0.92       0.0  T
   2   -103.7241445 -0.143708E-04  0.133E-02    0.92       1.0  T
   3   -103.7241448 -0.323164E-06  0.732E-03    0.91       1.7  T
   4   -103.7241443  0.557402E-06  0.371E-03    0.91       3.4  T
   5   -103.7241450 -0.748240E-06  0.824E-04    0.91      15.2  T
   6   -103.7241451 -0.234288E-07  0.358E-04    0.91      35.0  T
     SCC iter.                  ...        0 min,  0.051 sec
     gradient                   ...        0 min,  0.012 sec
 * total energy  :  -102.3281721 Eh     change    :  -0.3629474E-03 Eh
   gradient norm :     0.0068143 Eh/a0  converged?    E=F G=F D=F
   time step     :     1.2500000 fs     power     :   0.3198560E-08
   step length   :     0.1055773 a0     speed     :   0.2043034E-02

........................................................................
.............................. CYCLE  197 ..............................
........................................................................

 iter      E             dE          RMSdq      gap      omega  full diag
   1   -103.7252517 -0.103725E+03  0.225E-02    0.92       0.0  T
   2   -103.7252603 -0.858662E-05  0.128E-02    0.91       1.0  T
   3   -103.7252598  0.450774E-06  0.779E-03    0.92       1.6  T
   4   -103.7252598  0.210539E-07  0.545E-03    0.91       2.3  T
   5   -103.7252613 -0.146690E-05  0.713E-04    0.91      17.5  T
   6   -103.7252613 -0.180873E-07  0.349E-04    0.91      35.9  T
   7   -103.7252613 -0.184923E-08  0.200E-04    0.91      62.4  T
     SCC iter.                  ...        0 min,  0.080 sec
     gradient                   ...        0 min,  0.011 sec
 * total energy  :  -102.3285298 Eh     change    :  -0.3577532E-03 Eh
   gradient norm :     0.0060999 Eh/a0  converged?    E=F G=F D=F
   time step     :     1.2500000 fs     power     :   0.3343279E-08
   step length   :     0.1064526 a0     speed     :   0.2059972E-02

........................................................................
.............................. CYCLE  198 ..............................
........................................................................

 iter      E             dE          RMSdq      gap      omega  full diag
   1   -103.7250591 -0.103725E+03  0.226E-02    0.92       0.0  T
   2   -103.7250668 -0.771464E-05  0.127E-02    0.92       1.0  T
   3   -103.7250667  0.203676E-07  0.686E-03    0.92       1.8  T
   4   -103.7250663  0.405273E-06  0.422E-03    0.91       3.0  T
   5   -103.7250672 -0.872053E-06  0.770E-04    0.92      16.2  T
   6   -103.7250672 -0.215021E-07  0.336E-04    0.92      37.2  T
     SCC iter.                  ...        0 min,  0.051 sec
     gradient                   ...        0 min,  0.010 sec
 * total energy  :  -102.3288807 Eh     change    :  -0.3509144E-03 Eh
   gradient norm :     0.0067590 Eh/a0  converged?    E=F G=F D=F
   time step     :     1.2500000 fs     power     :   0.3270510E-08
   step length   :     0.1077700 a0     speed     :   0.2085465E-02

........................................................................
.............................. CYCLE  199 ..............................
........................................................................

 iter      E             dE          RMSdq      gap      omega  full diag
   1   -103.7264141 -0.103726E+03  0.240E-02    0.92       0.0  T
   2   -103.7264258 -0.116523E-04  0.135E-02    0.91       1.0  T
   3   -103.7264257  0.747662E-07  0.788E-03    0.92       1.6  T
   4   -103.7264249  0.797185E-06  0.590E-03    0.91       2.1  T
   5   -103.7264268 -0.192326E-05  0.879E-04    0.91      14.2  T
   6   -103.7264268 -0.260750E-07  0.395E-04    0.91      31.7  T
   7   -103.7264268 -0.284821E-08  0.217E-04    0.91      57.7  T
     SCC iter.                  ...        0 min,  0.079 sec
     gradient                   ...        0 min,  0.012 sec
 * total energy  :  -102.3292253 Eh     change    :  -0.3445143E-03 Eh
   gradient norm :     0.0081323 Eh/a0  converged?    E=F G=F D=F
   time step     :     1.2500000 fs     power     :   0.3004862E-08
   step length   :     0.1086418 a0     speed     :   0.2102336E-02

........................................................................
.............................. CYCLE  200 ..............................
........................................................................

 iter      E             dE          RMSdq      gap      omega  full diag
   1   -103.7258344 -0.103726E+03  0.252E-02    0.92       0.0  T
   2   -103.7258483 -0.138890E-04  0.139E-02    0.92       1.0  T
   3   -103.7258486 -0.297279E-06  0.792E-03    0.92       1.6  T
   4   -103.7258479  0.687136E-06  0.498E-03    0.92       2.5  T
   5   -103.7258491 -0.117828E-05  0.804E-04    0.92      15.5  T
   6   -103.7258491 -0.209369E-07  0.354E-04    0.92      35.3  T
   7   -103.7258491 -0.143410E-08  0.212E-04    0.92      59.0  T
     SCC iter.                  ...        0 min,  0.069 sec
     gradient                   ...        0 min,  0.012 sec
 * total energy  :  -102.3295680 Eh     change    :  -0.3427093E-03 Eh
   gradient norm :     0.0085502 Eh/a0  converged?    E=F G=F D=F
   time step     :     1.2500000 fs     power     :   0.2791382E-08
   step length   :     0.1087740 a0     speed     :   0.2104894E-02
 * RMSD in coord.:     0.2225767 a0     energy gain  -0.8500880E-02 Eh

   *** FAILED TO CONVERGE GEOMETRY OPTIMIZATION IN 200 CYCLES ***


 FIRE (total)                  0 d,  0 h,  0 min, 25.826 sec
 setup                          ...        0 min,  0.004 sec (  0.016%)
 velocities                     ...        0 min,  0.001 sec (  0.004%)
 propagation                    ...        0 min,  0.001 sec (  0.004%)
 singlepoint calculation        ...        0 min, 25.772 sec ( 99.791%)
 log and printout               ...        0 min,  0.039 sec (  0.152%)
 preconditioner                 ...        0 min,  0.001 sec (  0.003%)
 model hessian                  ...        0 min,  0.000 sec (  0.000%)
 hessian update                 ...        0 min,  0.001 sec (  0.002%)

================
 final structure:
================
64
 xtb: 6.7.1 (edcfbbe)
H            2.77344217748954       -1.97201792039121       -1.29503007494780
C            3.16841401201961       -1.18245726777646       -0.66745599305967
C            4.36856787323893       -0.49049875710139        1.27921065667078
C            3.42861704902554        1.17783074215417       -0.34818390111030
C            3.12924242517089        0.33305503254557        0.90112657846514
C            3.48699339384479        0.10139166943046       -1.44565739876974
C            4.37991119171862       -1.57844034079202        0.18909185236280
H            4.25478147334886       -0.91971953179915        2.27534163117628
H            2.70972016686302        0.90042088723883        1.71675551388619
H            4.46758196129376        0.05085421287833       -1.91535147385511
H            5.29931240341341       -1.58250042943475       -0.39087335787094
H            5.26480152248090        0.12528547748149        1.27606680450236
H            4.37199984991270        1.71536455392321       -0.23899651573348
H            2.73553149208051        0.26307958499117       -2.21635208910352
H            4.24340481286358       -2.57075952605940        0.62031347433502
N            2.24913880456977       -0.68197935867754        0.35377299300347
C            2.33724220811417        2.26549752740319       -0.44509397766435
O            2.65461876215709        3.39428039458135       -0.13365694099628
O            1.11401100000000        1.92169700000000       -0.73701200000000
H            0.99174500000000        0.96158200000000       -1.12296900000000
C            1.09725117909239       -1.15678579178393        0.76477953870749
C            0.34828153981296       -0.51932539338669        1.92877590184074
H            0.93766445518135       -0.73982292899254        2.82588630388006
H           -0.60347693610326       -1.04725288256685        2.01809410761593
C            0.50384200000000       -2.19892400000000       -0.00594000000000
H            1.17090091852611       -2.86087192771714       -0.53156269582478
H           -0.31653512567872       -2.71261707008895        0.46896738654417
O            0.63515900000000       -0.30626500000000       -1.78570700000000
C           -0.22786900000000       -1.18125300000000       -1.37256000000000
C           -1.65868521923343       -0.86915913149263       -1.02954311175960
H           -0.29831192437200       -2.04840867621437       -2.06979077035511
C           -2.23738619179744        0.38255489457480       -1.25169804023104
C           -2.50115462520534       -1.92750907926565       -0.65493146931273
C           -3.61554249561685        0.54035855053420       -1.08985259985870
C           -3.83509381204856       -1.74309554092401       -0.37801237023605
H           -2.09004198919956       -2.91915804326168       -0.53874520847509
C           -4.39674377544275       -0.48566077642005       -0.59756928444805
H           -4.05889598414732        1.51348254127802       -1.24555148945224
H           -4.44971215879543       -2.53678065793607        0.01633051357805
N           -5.74743288211252       -0.21359314942125       -0.19784752226512
O           -6.39070397691227       -1.12747651908513        0.27989423465134
O           -6.15970579165277        0.92234542778643       -0.32312519109685
C            0.04551009552371        0.98214102552158        1.92376908635705
C           -1.27962090183518        1.43159142921141        1.41994875081726
C            0.84951466833869        1.89924504903909        2.45785108846263
C           -1.45475098085920        2.93032627360667        1.17324128067583
H           -2.12067538088576        0.86719778480631        1.81510425255762
C            0.71874964215404        3.38862853338832        2.36736192963958
H            1.71998513343737        1.60297794413843        3.03523839665390
C           -0.39686269795401        3.95361035309819        1.45746014495362
H           -2.46828669219213        3.30242948448848        1.30552238565622
H            0.59217921004070        3.77549117305104        3.38340250465879
H           -0.86303997201045        4.77820229146507        2.01892467917766
C           -1.56377787399523        1.70308884316977       -1.20278549235009
C           -1.34420331184193        1.99859726744654        0.06991489628605
C           -1.45783169730518        2.68646922576315       -2.23331597520506
C            0.14980108360876        4.61313265160280        0.21566323496815
H            1.68083640469928        3.76357980457799        2.00375905596422
C           -0.83478363099817        3.88104724928152       -2.12497377268466
H           -1.85512543056550        2.40994510293211       -3.20154936043906
C           -0.06676043873943        4.58157117050555       -1.11120849072012
H            0.86166970816368        5.37665670441234        0.51315707204243
H           -0.82733720158030        4.44692159423834       -3.05278550530651
H            0.53034644264024        5.33905803251447       -1.61499952454798
 
 Bond Distances (Angstroems)
 ---------------------------
H1-C2=1.0832         C2-H1=1.0832         C2-C6=1.5347         C2-C7=1.5356         C2-N16=1.4623        C3-C5=1.5353         
C3-C7=1.5402         C3-H8=1.0906         C3-H12=1.0874        C4-C5=1.5375         C4-C6=1.5384         C4-H13=1.0913        
C4-C17=1.5439        C5-C3=1.5353         C5-C4=1.5375         C5-H9=1.0785         C5-N16=1.4507        C6-C2=1.5347         
C6-C4=1.5384         C6-H10=1.0884        C6-H14=1.0885        C7-C2=1.5356         C7-C3=1.5402         C7-H11=1.0870        
C7-H15=1.0905        H8-C3=1.0906         H9-C5=1.0785         H10-C6=1.0884        H11-C7=1.0870        H12-C3=1.0874        
H13-C4=1.0913        H14-C6=1.0885        H15-C7=1.0905        N16-C2=1.4623        N16-C5=1.4507        N16-C21=1.3120       
C17-C4=1.5439        C17-O18=1.2132       C17-O19=1.3037       O18-C17=1.2132       O19-C17=1.3037       O19-H20=1.0420       
H20-O19=1.0420       C21-N16=1.3120       C21-C22=1.5239       C21-C25=1.4256       C22-C21=1.5239       C22-H23=1.0958       
C22-H24=1.0920       C22-C43=1.5317       H23-C22=1.0958       H24-C22=1.0920       C25-C21=1.4256       C25-H26=1.0768       
C25-H27=1.0782       C25-C29=1.8544       H26-C25=1.0768       H27-C25=1.0782       O28-C29=1.2966       C29-C25=1.8544       
C29-O28=1.2966       C29-C30=1.5041       C29-H31=1.1149       C30-C29=1.5041       C30-C32=1.3968       C30-C33=1.4036       
H31-C29=1.1149       C32-C30=1.3968       C32-C34=1.3966       C32-C54=1.4832       C33-C30=1.4036       C33-C35=1.3748       
C33-H36=1.0798       C34-C32=1.3966       C34-C37=1.3803       C34-H38=1.0806       C35-C33=1.3748       C35-C37=1.3946       
C35-H39=1.0785       H36-C33=1.0798       C37-C34=1.3803       C37-C35=1.3946       C37-N40=1.4346       H38-C34=1.0806       
H39-C35=1.0785       N40-C37=1.4346       N40-O41=1.2154       N40-O42=1.2149       O41-N40=1.2154       O42-N40=1.2149       
C43-C22=1.5317       C43-C44=1.4872       C43-C45=1.3314       C44-C43=1.4872       C44-C46=1.5290       C44-H47=1.0872       
C44-C55=1.4657       C45-C43=1.3314       C45-C48=1.4978       C45-H49=1.0858       C46-C44=1.5290       C46-C50=1.4990       
C46-H51=1.0878       C46-C55=1.4483       H47-C44=1.0872       C48-C45=1.4978       C48-C50=1.5465       C48-H52=1.0945       
C48-H58=1.0947       H49-C45=1.0858       C50-C46=1.4990       C50-C48=1.5465       C50-H53=1.1011       C50-C57=1.5086       
H51-C46=1.0878       H52-C48=1.0945       H53-C50=1.1011       C54-C32=1.4832       C54-C55=1.3249       C54-C56=1.4284       
C55-C44=1.4657       C55-C46=1.4483       C55-C54=1.3249       C56-C54=1.4284       C56-C59=1.3516       C56-H60=1.0825       
C57-C50=1.5086       C57-C61=1.3448       C57-H62=1.0855       H58-C48=1.0947       C59-C56=1.3516       C59-C61=1.4520       
C59-H63=1.0868       H60-C56=1.0825       C61-C57=1.3448       C61-C59=1.4520       C61-H64=1.0882       H62-C57=1.0855       
H63-C59=1.0868       H64-C61=1.0882       
 C  H  Rav=1.0880 sigma=0.0079  Rmin=1.0768  Rmax=1.1149    27
 C  C  Rav=1.4743 sigma=0.0973  Rmin=1.3249  Rmax=1.8544    33
 N  C  Rav=1.4149 sigma=0.0602  Rmin=1.3120  Rmax=1.4623     4
 O  H  Rav=1.0420 sigma=0.0000  Rmin=1.0420  Rmax=1.0420     1
 O  C  Rav=1.2712 sigma=0.0411  Rmin=1.2132  Rmax=1.3037     3
 O  N  Rav=1.2152 sigma=0.0002  Rmin=1.2149  Rmax=1.2154     2
 
 selected bond angles (degree)
 --------------------
C6-C2-H1=113.06                C7-C2-H1=115.02                C7-C2-C6=109.56                N16-C2-H1=115.14               
N16-C2-C6=101.44               N16-C2-C7=101.23               C7-C3-C5=102.15                H8-C3-C5=110.60                
H8-C3-C7=111.67                H12-C3-C5=111.15               H12-C3-C7=113.07               H12-C3-H8=108.15               
C6-C4-C5=101.69                H13-C4-C5=110.96               H13-C4-C6=112.54               C17-C4-C5=107.48               
C17-C4-C6=118.36               C17-C4-H13=105.69              C4-C5-C3=109.73                H9-C5-C3=114.20                
H9-C5-C4=113.65                N16-C5-C3=101.97               N16-C5-C4=101.30               N16-C5-H9=114.67               
C4-C6-C2=102.46                H10-C6-C2=111.53               H10-C6-C4=112.00               H14-C6-C2=109.88               
H14-C6-C4=112.02               H14-C6-H10=108.86              C3-C7-C2=101.94                H11-C7-C2=111.75               
H11-C7-C3=112.74               H15-C7-C2=110.88               H15-C7-C3=111.22               H15-C7-H11=108.27              
 
 selected dihedral angles (degree)
 ---------------------------------
C4-C5-C3-C7=286.38            C4-C5-C3-H8=167.41            C4-C5-C3-H12= 47.26           H9-C5-C3-C7=157.44            
H9-C5-C3-H8= 38.46            H9-C5-C3-H12=278.32           N16-C5-C3-C7= 33.17           N16-C5-C3-H8=274.19           
N16-C5-C3-H12=154.05          C3-C5-C4-C6= 71.09            C3-C5-C4-H13=311.20           C3-C5-C4-C17=196.10           
H9-C5-C4-C6=200.33            H9-C5-C4-H13= 80.44           H9-C5-C4-C17=325.34           N16-C5-C4-C6=323.86           
N16-C5-C4-H13=203.97          N16-C5-C4-C17= 88.87          C4-C6-C2-H1=156.68            C4-C6-C2-C7=286.40            
C4-C6-C2-N16= 32.82           H10-C6-C2-H1=276.65           H10-C6-C2-C7= 46.37           H10-C6-C2-N16=152.78          
H14-C6-C2-H1= 37.46           H14-C6-C2-C7=167.18           H14-C6-C2-N16=273.59          C2-C6-C4-C5=  1.76            
C2-C6-C4-H13=120.53           C2-C6-C4-C17=244.35           H10-C6-C4-C5=242.12           H10-C6-C4-H13=  0.88          
H10-C6-C4-C17=124.71          H14-C6-C4-C5=119.46           H14-C6-C4-H13=238.23          H14-C6-C4-C17=  2.06          
C3-C7-C2-H1=199.67            C3-C7-C2-C6= 71.03            C3-C7-C2-N16=324.47           H11-C7-C2-H1= 79.03           
H11-C7-C2-C6=310.38           H11-C7-C2-N16=203.82          H15-C7-C2-H1=318.14           H15-C7-C2-C6=189.49           
H15-C7-C2-N16= 82.93          C2-C7-C3-C5=  1.61            C2-C7-C3-H8=119.83            C2-C7-C3-H12=242.08           
H11-C7-C3-C5=121.57           H11-C7-C3-H8=239.78           H11-C7-C3-H12=  2.03          H15-C7-C3-C5=243.39           
H15-C7-C3-H8=  1.61           H15-C7-C3-H12=123.85          
           -------------------------------------------------
          |                Final Singlepoint                |
           -------------------------------------------------

          ...................................................
          :                      SETUP                      :
          :.................................................:
          :  # basis functions                 172          :
          :  # atomic orbitals                 172          :
          :  # shells                          100          :
          :  # electrons                       184          :
          :  max. iterations                   250          :
          :  Hamiltonian                  GFN2-xTB          :
          :  restarted?                      false          :
          :  GBSA solvation                  false          :
          :  PC potential                    false          :
          :  electronic temp.          300.0000000     K    :
          :  accuracy                    1.0000000          :
          :  -> integral cutoff          0.2500000E+02      :
          :  -> integral neglect         0.1000000E-07      :
          :  -> SCF convergence          0.1000000E-05 Eh   :
          :  -> wf. convergence          0.1000000E-03 e    :
          :  Broyden damping             0.4000000          :
          :  net charge                          0          :
          :  unpaired electrons                  0          :
          ...................................................

 iter      E             dE          RMSdq      gap      omega  full diag
   1   -103.7258491 -0.103726E+03  0.736E-05    0.92       0.0  T
   2   -103.7258491  0.118945E-10  0.604E-05    0.92     206.9  T
   3   -103.7258491 -0.134818E-09  0.324E-05    0.92     385.2  T

   *** convergence criteria satisfied after 3 iterations ***

         #    Occupation            Energy/Eh            Energy/eV
      -------------------------------------------------------------
         1        2.0000           -0.7596892             -20.6722
       ...           ...                  ...                  ...
        86        2.0000           -0.3991406             -10.8612
        87        2.0000           -0.3927956             -10.6885
        88        2.0000           -0.3906664             -10.6306
        89        2.0000           -0.3832859             -10.4297
        90        2.0000           -0.3786029             -10.3023
        91        2.0000           -0.3722504             -10.1294
        92        2.0000           -0.3452456              -9.3946 (HOMO)
        93                         -0.3115147              -8.4767 (LUMO)
        94                         -0.2832939              -7.7088
        95                         -0.2559881              -6.9658
        96                         -0.2469021              -6.7185
        97                         -0.2268739              -6.1736
       ...                                ...                  ...
       172                          0.8009852              21.7959
      -------------------------------------------------------------
                  HL-Gap            0.0337309 Eh            0.9179 eV
             Fermi-level           -0.3283802 Eh           -8.9357 eV

 SCC (total)                   0 d,  0 h,  0 min,  0.055 sec
 SCC setup                      ...        0 min,  0.001 sec (  0.979%)
 Dispersion                     ...        0 min,  0.001 sec (  1.664%)
 classical contributions        ...        0 min,  0.000 sec (  0.214%)
 integral evaluation            ...        0 min,  0.005 sec (  8.211%)
 iterations                     ...        0 min,  0.036 sec ( 64.360%)
 molecular gradient             ...        0 min,  0.013 sec ( 23.513%)
 printout                       ...        0 min,  0.000 sec (  0.883%)

         :::::::::::::::::::::::::::::::::::::::::::::::::::::
         ::                     SUMMARY                     ::
         :::::::::::::::::::::::::::::::::::::::::::::::::::::
         :: total energy            -102.329567967691 Eh    ::
         :: gradient norm              0.043102209529 Eh/a0 ::
         :: HOMO-LUMO gap              0.917863260480 eV    ::
         ::.................................................::
         :: SCC energy              -103.721359885027 Eh    ::
         :: -> isotropic ES            0.158187865519 Eh    ::
         :: -> anisotropic ES          0.007202771742 Eh    ::
         :: -> anisotropic XC          0.029901965927 Eh    ::
         :: -> dispersion             -0.095027506277 Eh    ::
         :: repulsion energy           1.391791917336 Eh    ::
         :: add. restraining           0.000000000000 Eh    ::
         :: total charge               0.000000000000 e     ::
         :::::::::::::::::::::::::::::::::::::::::::::::::::::

           -------------------------------------------------
          |                Property Printout                |
           -------------------------------------------------

    * Orbital Energies and Occupations

         #    Occupation            Energy/Eh            Energy/eV
      -------------------------------------------------------------
         1        2.0000           -0.7596892             -20.6722
       ...           ...                  ...                  ...
        80        2.0000           -0.4292301             -11.6799
        81        2.0000           -0.4285285             -11.6609
        82        2.0000           -0.4273947             -11.6300
        83        2.0000           -0.4183481             -11.3838
        84        2.0000           -0.4139408             -11.2639
        85        2.0000           -0.4099220             -11.1545
        86        2.0000           -0.3991406             -10.8612
        87        2.0000           -0.3927956             -10.6885
        88        2.0000           -0.3906664             -10.6306
        89        2.0000           -0.3832859             -10.4297
        90        2.0000           -0.3786029             -10.3023
        91        2.0000           -0.3722504             -10.1294
        92        2.0000           -0.3452456              -9.3946 (HOMO)
        93                         -0.3115147              -8.4767 (LUMO)
        94                         -0.2832939              -7.7088
        95                         -0.2559881              -6.9658
        96                         -0.2469021              -6.7185
        97                         -0.2268739              -6.1736
        98                         -0.2232808              -6.0758
        99                         -0.2101296              -5.7179
       100                         -0.1812889              -4.9331
       101                         -0.1350048              -3.6737
       102                         -0.1133868              -3.0854
       103                         -0.1002025              -2.7266
       ...                                ...                  ...
       172                          0.8009852              21.7959
      -------------------------------------------------------------
                  HL-Gap            0.0337309 Eh            0.9179 eV
             Fermi-level           -0.3283802 Eh           -8.9357 eV

     #   Z          covCN         q      C6AA      α(0)
     1   1 H        0.925     0.066     2.135     2.285
     2   6 C        3.985     0.036    19.901     6.338
     3   6 C        3.838    -0.067    21.761     6.636
     4   6 C        3.889    -0.065    21.684     6.620
     5   6 C        3.992     0.027    20.053     6.362
     6   6 C        3.840    -0.074    21.887     6.655
     7   6 C        3.839    -0.070    21.804     6.643
     8   1 H        0.924     0.041     2.431     2.438
     9   1 H        0.926     0.069     2.100     2.266
    10   1 H        0.925     0.053     2.281     2.362
    11   1 H        0.925     0.056     2.248     2.345
    12   1 H        0.925     0.058     2.225     2.333
    13   1 H        0.924     0.065     2.140     2.288
    14   1 H        0.925     0.088     1.902     2.157
    15   1 H        0.924     0.041     2.430     2.438
    16   7 N        2.820     0.006    21.156     6.831
    17   6 C        2.689     0.358    20.930     7.487
    18   8 O        0.857    -0.433    22.351     6.339
    19   8 O        1.641    -0.403    20.909     6.172
    20   1 H        0.818     0.370     0.542     1.156
    21   6 C        2.874     0.098    25.830     8.331
    22   6 C        3.804    -0.069    21.815     6.649
    23   1 H        0.924     0.059     2.214     2.327
    24   1 H        0.924     0.059     2.209     2.324
    25   6 C        3.612    -0.111    23.176     6.950
    26   1 H        0.926     0.054     2.266     2.354
    27   1 H        0.926     0.052     2.291     2.367
    28   8 O        0.888    -0.572    25.427     6.761
    29   6 C        3.526     0.177    18.866     6.391
    30   6 C        2.963    -0.006    28.177     8.707
    31   1 H        0.921     0.018     2.759     2.598
    32   6 C        3.044     0.028    27.332     8.575
    33   6 C        2.928    -0.039    28.962     8.826
    34   6 C        2.947    -0.030    28.740     8.793
    35   6 C        2.916    -0.033    28.823     8.804
    36   1 H        0.926     0.041     2.439     2.442
    37   6 C        2.914    -0.002    28.078     8.689
    38   1 H        0.926     0.075     2.035     2.231
    39   1 H        0.926     0.069     2.092     2.262
    40   7 N        2.760     0.539    13.598     5.477
    41   8 O        0.930    -0.395    21.556     6.227
    42   8 O        0.930    -0.394    21.534     6.223
    43   6 C        2.939     0.003    27.947     8.670
    44   6 C        3.871    -0.029    21.051     6.524
    45   6 C        2.900    -0.042    29.032     8.835
    46   6 C        3.863    -0.016    20.815     6.488
    47   1 H        0.925     0.022     2.707     2.573
    48   6 C        3.805    -0.056    21.578     6.613
    49   1 H        0.925     0.018     2.763     2.599
    50   6 C        3.851    -0.005    20.640     6.462
    51   1 H        0.925     0.039     2.465     2.455
    52   1 H        0.924     0.042     2.419     2.432
    53   1 H        0.923     0.037     2.492     2.469
    54   6 C        2.973     0.016    27.659     8.627
    55   6 C        3.031     0.017    27.605     8.618
    56   6 C        2.902    -0.032    28.808     8.801
    57   6 C        2.888    -0.022    28.551     8.760
    58   1 H        0.924     0.074     2.043     2.235
    59   6 C        2.891    -0.025    28.625     8.772
    60   1 H        0.925     0.035     2.522     2.483
    61   6 C        2.885    -0.027    28.672     8.779
    62   1 H        0.925     0.043     2.413     2.429
    63   1 H        0.925     0.032     2.552     2.498
    64   1 H        0.925     0.038     2.470     2.458

 Mol. C6AA /au·bohr⁶  :      47243.006902
 Mol. C8AA /au·bohr⁸  :    1129888.295088
 Mol. α(0) /au        :        333.037150


Wiberg/Mayer (AO) data.
largest (>0.10) Wiberg bond orders for each atom

 ---------------------------------------------------------------------------
     #   Z sym  total        # sym  WBO       # sym  WBO       # sym  WBO
 ---------------------------------------------------------------------------
     1   1 H    0.995 --     2 C    0.960
     2   6 C    3.959 --     6 C    0.987     7 C    0.986     1 H    0.960
                            16 N    0.953
     3   6 C    3.991 --     7 C    0.999     8 H    0.980     5 C    0.980
                            12 H    0.976
     4   6 C    3.986 --     6 C    0.986    13 H    0.967     5 C    0.961
                            17 C    0.930
     5   6 C    3.958 --     3 C    0.980    16 N    0.963     4 C    0.961
                             9 H    0.942
     6   6 C    3.987 --     2 C    0.987     4 C    0.986    10 H    0.975
                            14 H    0.964
     7   6 C    3.993 --     3 C    0.999     2 C    0.986    15 H    0.981
                            11 H    0.977
     8   1 H    0.998 --     3 C    0.980
     9   1 H    0.995 --     5 C    0.942
    10   1 H    0.997 --     6 C    0.975
    11   1 H    0.996 --     7 C    0.977
    12   1 H    0.996 --     3 C    0.976
    13   1 H    0.995 --     4 C    0.967
    14   1 H    0.992 --     6 C    0.964
    15   1 H    0.998 --     7 C    0.981
    16   7 N    3.647 --    21 C    1.454     5 C    0.963     2 C    0.953
    17   6 C    3.930 --    18 O    1.705    19 O    1.250     4 C    0.930
    18   8 O    2.005 --    17 C    1.705    19 O    0.182
    19   8 O    2.222 --    17 C    1.250    20 H    0.661    18 O    0.182
    20   1 H    0.863 --    19 O    0.661    28 O    0.169
    21   6 C    3.950 --    16 N    1.454    25 C    1.256    22 C    0.999
    22   6 C    3.988 --    21 C    0.999    43 C    0.977    24 H    0.969
                            23 H    0.946
    23   1 H    0.996 --    22 C    0.946
    24   1 H    0.996 --    22 C    0.969
    25   6 C    3.975 --    21 C    1.256    27 H    0.968    26 H    0.966
                            29 C    0.560
    26   1 H    0.996 --    25 C    0.966
    27   1 H    0.997 --    25 C    0.968
    28   8 O    1.881 --    29 C    1.349    20 H    0.169
    29   6 C    3.958 --    28 O    1.349    30 C    0.994    31 H    0.911
                            25 C    0.560
    30   6 C    3.979 --    32 C    1.365    33 C    1.361    29 C    0.994
    31   1 H    0.995 --    29 C    0.911
    32   6 C    3.975 --    34 C    1.380    30 C    1.365    54 C    0.987
    33   6 C    3.989 --    35 C    1.497    30 C    1.361    36 H    0.962
    34   6 C    3.984 --    37 C    1.405    32 C    1.380    38 H    0.959
    35   6 C    3.980 --    33 C    1.497    37 C    1.331    39 H    0.962
    36   1 H    0.997 --    33 C    0.962
    37   6 C    3.954 --    34 C    1.405    35 C    1.331    40 N    0.975
    38   1 H    0.994 --    34 C    0.959
    39   1 H    0.995 --    35 C    0.962
    40   7 N    3.904 --    42 O    1.442    41 O    1.440    37 C    0.975
    41   8 O    1.914 --    40 N    1.440    42 O    0.352
    42   8 O    1.919 --    40 N    1.442    41 O    0.352
    43   6 C    3.980 --    45 C    1.853    44 C    1.010    22 C    0.977
    44   6 C    3.936 --    43 C    1.010    55 C    0.951    47 H    0.949
                            46 C    0.923
    45   6 C    3.989 --    43 C    1.853    48 C    1.032    49 H    0.948
    46   6 C    3.942 --    50 C    0.987    55 C    0.986    51 H    0.948
                            44 C    0.923
    47   1 H    0.999 --    44 C    0.949
    48   6 C    3.994 --    45 C    1.032    50 C    0.970    52 H    0.959
                            58 H    0.949
    49   1 H    0.998 --    45 C    0.948
    50   6 C    3.993 --    57 C    1.011    46 C    0.987    48 C    0.970
                            53 H    0.951
    51   1 H    0.998 --    46 C    0.948
    52   1 H    0.997 --    48 C    0.959
    53   1 H    0.997 --    50 C    0.951
    54   6 C    3.978 --    55 C    1.678    56 C    1.146    32 C    0.987
    55   6 C    3.951 --    54 C    1.678    46 C    0.986    44 C    0.951
                            59 C    0.109
    56   6 C    3.986 --    59 C    1.698    54 C    1.146    60 H    0.966
                            57 C    0.100
    57   6 C    3.981 --    61 C    1.797    50 C    1.011    62 H    0.964
                            56 C    0.100
    58   1 H    0.994 --    48 C    0.949
    59   6 C    3.985 --    56 C    1.698    61 C    1.147    63 H    0.968
                            55 C    0.109
    60   1 H    0.998 --    56 C    0.966
    61   6 C    3.988 --    57 C    1.797    59 C    1.147    64 H    0.961
    62   1 H    0.997 --    57 C    0.964
    63   1 H    0.998 --    59 C    0.968
    64   1 H    0.998 --    61 C    0.961
 ---------------------------------------------------------------------------

Topologies differ in total number of bonds
Writing topology from bond orders to xtbtopo.mol

molecular dipole:
                 x           y           z       tot (Debye)
 q only:        3.645      -1.649       1.146
   full:        3.479      -2.353       1.318      11.187
molecular quadrupole (traceless):
                xx          xy          yy          xz          yz          zz
 q only:      -29.443     -13.434      12.181       7.074       3.552      17.263
  q+dip:      -30.090     -13.166      10.276       8.422       5.025      19.814
   full:      -30.535     -14.543       8.720       8.805       4.991      21.815

           -------------------------------------------------
          |                Geometry Summary                 |
           -------------------------------------------------

      molecular mass/u    :      484.5441131
   center of mass at/Å    :       -0.2905571       0.8053766      -0.0677509
  moments of inertia/u·Å² :        0.2578686E+04   0.4836132E+04   0.5958871E+04
rotational constants/cm⁻¹ :        0.6537296E-02   0.3485768E-02   0.2828998E-02

 * 56 selected distances

     #   Z          #   Z                                           value/Å
     1   1 H        2   6 C                                       1.0831704
     3   6 C        5   6 C                                       1.5352903
     4   6 C        5   6 C                                       1.5375462
     2   6 C        6   6 C                                       1.5347178
     4   6 C        6   6 C                                       1.5383684
     2   6 C        7   6 C                                       1.5356441
     3   6 C        7   6 C                                       1.5401640 (max)
     3   6 C        8   1 H                                       1.0906214
     5   6 C        9   1 H                                       1.0784960
     6   6 C       10   1 H                                       1.0884488
     7   6 C       11   1 H                                       1.0870487
     3   6 C       12   1 H                                       1.0873983
     4   6 C       13   1 H                                       1.0912542
     6   6 C       14   1 H                                       1.0884891
     7   6 C       15   1 H                                       1.0905428
     2   6 C       16   7 N                                       1.4623454
     5   6 C       16   7 N                                       1.4506804
    17   6 C       18   8 O                                       1.2132073
    17   6 C       19   8 O                                       1.3037292
    16   7 N       21   6 C                                       1.3119501
    22   6 C       23   1 H                                       1.0958096
    22   6 C       24   1 H                                       1.0920300
    21   6 C       25   6 C                                       1.4255509
    25   6 C       26   1 H                                       1.0767646 (min)
    25   6 C       27   1 H                                       1.0781635
    29   6 C       31   1 H                                       1.1149225
    30   6 C       32   6 C                                       1.3967949
    30   6 C       33   6 C                                       1.4036358
    32   6 C       34   6 C                                       1.3965712
    33   6 C       35   6 C                                       1.3748042
    33   6 C       36   1 H                                       1.0797596
    34   6 C       37   6 C                                       1.3803385
    35   6 C       37   6 C                                       1.3945603
    34   6 C       38   1 H                                       1.0806364
    35   6 C       39   1 H                                       1.0785167
    40   7 N       41   8 O                                       1.2154086
    40   7 N       42   8 O                                       1.2149157
    43   6 C       45   6 C                                       1.3314455
    44   6 C       46   6 C                                       1.5289675
    44   6 C       47   1 H                                       1.0872262
    45   6 C       49   1 H                                       1.0857575
    46   6 C       50   6 C                                       1.4990059
    46   6 C       51   1 H                                       1.0877564
    48   6 C       52   1 H                                       1.0945417
    50   6 C       53   1 H                                       1.1011429
    44   6 C       55   6 C                                       1.4656938
    46   6 C       55   6 C                                       1.4483333
    54   6 C       55   6 C                                       1.3248792
    54   6 C       56   6 C                                       1.4283750
    48   6 C       58   1 H                                       1.0947176
    56   6 C       59   6 C                                       1.3516449
    56   6 C       60   1 H                                       1.0824897
    57   6 C       61   6 C                                       1.3447988
    57   6 C       62   1 H                                       1.0854624
    59   6 C       63   1 H                                       1.0867861
    61   6 C       64   1 H                                       1.0881767

 * 5 distinct bonds (by element types)

   Z      Z             #   av. dist./Å        max./Å        min./Å
   1 H    6 C          27     1.0880048     1.1149225     1.0767646
   6 C    6 C          22     1.4416877     1.5401640     1.3248792
   6 C    7 N           3     1.4083253     1.4623454     1.3119501
   6 C    8 O           2     1.2584682     1.3037292     1.2132073
   7 N    8 O           2     1.2151621     1.2154086     1.2149157


optimized geometry written to: xtbopt.xyz


           -------------------------------------------------
          | TOTAL ENERGY             -102.329567967691 Eh   |
          | GRADIENT NORM               0.008549746777 Eh/α |
          | HOMO-LUMO GAP               0.917863260480 eV   |
           -------------------------------------------------

------------------------------------------------------------------------
 * finished run on 2026/09/15 at 23:30:54.331     
------------------------------------------------------------------------
 total:
 * wall-time:     0 d,  0 h,  0 min, 26.640 sec
 *  cpu-time:     0 d,  0 h,  6 min,  0.726 sec
 * ratio c/w:    13.541 speedup
 SCF:
 * wall-time:     0 d,  0 h,  0 min,  0.642 sec
 *  cpu-time:     0 d,  0 h,  0 min,  4.127 sec
 * ratio c/w:     6.428 speedup
 ANC optimizer:
 * wall-time:     0 d,  0 h,  0 min, 25.895 sec
 *  cpu-time:     0 d,  0 h,  5 min, 55.961 sec
 * ratio c/w:    13.746 speedup

normal termination of xtb
